** 12x12x1 の六面体メッシュ。上辺ほど x 方向へずれる（せん断 0.25、最大非直交角 14°）平行四辺形キャビティ。
** 箱格子ではないので InpMeshProcess（面ベース非構造）+ NavierStokesFVMProcess で解く。
*NODE, NSET=NALL
 1, 0, 0, 0
 2, 0.00833333, 0, 0
 3, 0.0166667, 0, 0
 4, 0.025, 0, 0
 5, 0.0333333, 0, 0
 6, 0.0416667, 0, 0
 7, 0.05, 0, 0
 8, 0.0583333, 0, 0
 9, 0.0666667, 0, 0
 10, 0.075, 0, 0
 11, 0.0833333, 0, 0
 12, 0.0916667, 0, 0
 13, 0.1, 0, 0
 14, 0.00208333, 0.00833333, 0
 15, 0.0104167, 0.00833333, 0
 16, 0.01875, 0.00833333, 0
 17, 0.0270833, 0.00833333, 0
 18, 0.0354167, 0.00833333, 0
 19, 0.04375, 0.00833333, 0
 20, 0.0520833, 0.00833333, 0
 21, 0.0604167, 0.00833333, 0
 22, 0.06875, 0.00833333, 0
 23, 0.0770833, 0.00833333, 0
 24, 0.0854167, 0.00833333, 0
 25, 0.09375, 0.00833333, 0
 26, 0.102083, 0.00833333, 0
 27, 0.00416667, 0.0166667, 0
 28, 0.0125, 0.0166667, 0
 29, 0.0208333, 0.0166667, 0
 30, 0.0291667, 0.0166667, 0
 31, 0.0375, 0.0166667, 0
 32, 0.0458333, 0.0166667, 0
 33, 0.0541667, 0.0166667, 0
 34, 0.0625, 0.0166667, 0
 35, 0.0708333, 0.0166667, 0
 36, 0.0791667, 0.0166667, 0
 37, 0.0875, 0.0166667, 0
 38, 0.0958333, 0.0166667, 0
 39, 0.104167, 0.0166667, 0
 40, 0.00625, 0.025, 0
 41, 0.0145833, 0.025, 0
 42, 0.0229167, 0.025, 0
 43, 0.03125, 0.025, 0
 44, 0.0395833, 0.025, 0
 45, 0.0479167, 0.025, 0
 46, 0.05625, 0.025, 0
 47, 0.0645833, 0.025, 0
 48, 0.0729167, 0.025, 0
 49, 0.08125, 0.025, 0
 50, 0.0895833, 0.025, 0
 51, 0.0979167, 0.025, 0
 52, 0.10625, 0.025, 0
 53, 0.00833333, 0.0333333, 0
 54, 0.0166667, 0.0333333, 0
 55, 0.025, 0.0333333, 0
 56, 0.0333333, 0.0333333, 0
 57, 0.0416667, 0.0333333, 0
 58, 0.05, 0.0333333, 0
 59, 0.0583333, 0.0333333, 0
 60, 0.0666667, 0.0333333, 0
 61, 0.075, 0.0333333, 0
 62, 0.0833333, 0.0333333, 0
 63, 0.0916667, 0.0333333, 0
 64, 0.1, 0.0333333, 0
 65, 0.108333, 0.0333333, 0
 66, 0.0104167, 0.0416667, 0
 67, 0.01875, 0.0416667, 0
 68, 0.0270833, 0.0416667, 0
 69, 0.0354167, 0.0416667, 0
 70, 0.04375, 0.0416667, 0
 71, 0.0520833, 0.0416667, 0
 72, 0.0604167, 0.0416667, 0
 73, 0.06875, 0.0416667, 0
 74, 0.0770833, 0.0416667, 0
 75, 0.0854167, 0.0416667, 0
 76, 0.09375, 0.0416667, 0
 77, 0.102083, 0.0416667, 0
 78, 0.110417, 0.0416667, 0
 79, 0.0125, 0.05, 0
 80, 0.0208333, 0.05, 0
 81, 0.0291667, 0.05, 0
 82, 0.0375, 0.05, 0
 83, 0.0458333, 0.05, 0
 84, 0.0541667, 0.05, 0
 85, 0.0625, 0.05, 0
 86, 0.0708333, 0.05, 0
 87, 0.0791667, 0.05, 0
 88, 0.0875, 0.05, 0
 89, 0.0958333, 0.05, 0
 90, 0.104167, 0.05, 0
 91, 0.1125, 0.05, 0
 92, 0.0145833, 0.0583333, 0
 93, 0.0229167, 0.0583333, 0
 94, 0.03125, 0.0583333, 0
 95, 0.0395833, 0.0583333, 0
 96, 0.0479167, 0.0583333, 0
 97, 0.05625, 0.0583333, 0
 98, 0.0645833, 0.0583333, 0
 99, 0.0729167, 0.0583333, 0
 100, 0.08125, 0.0583333, 0
 101, 0.0895833, 0.0583333, 0
 102, 0.0979167, 0.0583333, 0
 103, 0.10625, 0.0583333, 0
 104, 0.114583, 0.0583333, 0
 105, 0.0166667, 0.0666667, 0
 106, 0.025, 0.0666667, 0
 107, 0.0333333, 0.0666667, 0
 108, 0.0416667, 0.0666667, 0
 109, 0.05, 0.0666667, 0
 110, 0.0583333, 0.0666667, 0
 111, 0.0666667, 0.0666667, 0
 112, 0.075, 0.0666667, 0
 113, 0.0833333, 0.0666667, 0
 114, 0.0916667, 0.0666667, 0
 115, 0.1, 0.0666667, 0
 116, 0.108333, 0.0666667, 0
 117, 0.116667, 0.0666667, 0
 118, 0.01875, 0.075, 0
 119, 0.0270833, 0.075, 0
 120, 0.0354167, 0.075, 0
 121, 0.04375, 0.075, 0
 122, 0.0520833, 0.075, 0
 123, 0.0604167, 0.075, 0
 124, 0.06875, 0.075, 0
 125, 0.0770833, 0.075, 0
 126, 0.0854167, 0.075, 0
 127, 0.09375, 0.075, 0
 128, 0.102083, 0.075, 0
 129, 0.110417, 0.075, 0
 130, 0.11875, 0.075, 0
 131, 0.0208333, 0.0833333, 0
 132, 0.0291667, 0.0833333, 0
 133, 0.0375, 0.0833333, 0
 134, 0.0458333, 0.0833333, 0
 135, 0.0541667, 0.0833333, 0
 136, 0.0625, 0.0833333, 0
 137, 0.0708333, 0.0833333, 0
 138, 0.0791667, 0.0833333, 0
 139, 0.0875, 0.0833333, 0
 140, 0.0958333, 0.0833333, 0
 141, 0.104167, 0.0833333, 0
 142, 0.1125, 0.0833333, 0
 143, 0.120833, 0.0833333, 0
 144, 0.0229167, 0.0916667, 0
 145, 0.03125, 0.0916667, 0
 146, 0.0395833, 0.0916667, 0
 147, 0.0479167, 0.0916667, 0
 148, 0.05625, 0.0916667, 0
 149, 0.0645833, 0.0916667, 0
 150, 0.0729167, 0.0916667, 0
 151, 0.08125, 0.0916667, 0
 152, 0.0895833, 0.0916667, 0
 153, 0.0979167, 0.0916667, 0
 154, 0.10625, 0.0916667, 0
 155, 0.114583, 0.0916667, 0
 156, 0.122917, 0.0916667, 0
 157, 0.025, 0.1, 0
 158, 0.0333333, 0.1, 0
 159, 0.0416667, 0.1, 0
 160, 0.05, 0.1, 0
 161, 0.0583333, 0.1, 0
 162, 0.0666667, 0.1, 0
 163, 0.075, 0.1, 0
 164, 0.0833333, 0.1, 0
 165, 0.0916667, 0.1, 0
 166, 0.1, 0.1, 0
 167, 0.108333, 0.1, 0
 168, 0.116667, 0.1, 0
 169, 0.125, 0.1, 0
 170, 0, 0, 0.00833333
 171, 0.00833333, 0, 0.00833333
 172, 0.0166667, 0, 0.00833333
 173, 0.025, 0, 0.00833333
 174, 0.0333333, 0, 0.00833333
 175, 0.0416667, 0, 0.00833333
 176, 0.05, 0, 0.00833333
 177, 0.0583333, 0, 0.00833333
 178, 0.0666667, 0, 0.00833333
 179, 0.075, 0, 0.00833333
 180, 0.0833333, 0, 0.00833333
 181, 0.0916667, 0, 0.00833333
 182, 0.1, 0, 0.00833333
 183, 0.00208333, 0.00833333, 0.00833333
 184, 0.0104167, 0.00833333, 0.00833333
 185, 0.01875, 0.00833333, 0.00833333
 186, 0.0270833, 0.00833333, 0.00833333
 187, 0.0354167, 0.00833333, 0.00833333
 188, 0.04375, 0.00833333, 0.00833333
 189, 0.0520833, 0.00833333, 0.00833333
 190, 0.0604167, 0.00833333, 0.00833333
 191, 0.06875, 0.00833333, 0.00833333
 192, 0.0770833, 0.00833333, 0.00833333
 193, 0.0854167, 0.00833333, 0.00833333
 194, 0.09375, 0.00833333, 0.00833333
 195, 0.102083, 0.00833333, 0.00833333
 196, 0.00416667, 0.0166667, 0.00833333
 197, 0.0125, 0.0166667, 0.00833333
 198, 0.0208333, 0.0166667, 0.00833333
 199, 0.0291667, 0.0166667, 0.00833333
 200, 0.0375, 0.0166667, 0.00833333
 201, 0.0458333, 0.0166667, 0.00833333
 202, 0.0541667, 0.0166667, 0.00833333
 203, 0.0625, 0.0166667, 0.00833333
 204, 0.0708333, 0.0166667, 0.00833333
 205, 0.0791667, 0.0166667, 0.00833333
 206, 0.0875, 0.0166667, 0.00833333
 207, 0.0958333, 0.0166667, 0.00833333
 208, 0.104167, 0.0166667, 0.00833333
 209, 0.00625, 0.025, 0.00833333
 210, 0.0145833, 0.025, 0.00833333
 211, 0.0229167, 0.025, 0.00833333
 212, 0.03125, 0.025, 0.00833333
 213, 0.0395833, 0.025, 0.00833333
 214, 0.0479167, 0.025, 0.00833333
 215, 0.05625, 0.025, 0.00833333
 216, 0.0645833, 0.025, 0.00833333
 217, 0.0729167, 0.025, 0.00833333
 218, 0.08125, 0.025, 0.00833333
 219, 0.0895833, 0.025, 0.00833333
 220, 0.0979167, 0.025, 0.00833333
 221, 0.10625, 0.025, 0.00833333
 222, 0.00833333, 0.0333333, 0.00833333
 223, 0.0166667, 0.0333333, 0.00833333
 224, 0.025, 0.0333333, 0.00833333
 225, 0.0333333, 0.0333333, 0.00833333
 226, 0.0416667, 0.0333333, 0.00833333
 227, 0.05, 0.0333333, 0.00833333
 228, 0.0583333, 0.0333333, 0.00833333
 229, 0.0666667, 0.0333333, 0.00833333
 230, 0.075, 0.0333333, 0.00833333
 231, 0.0833333, 0.0333333, 0.00833333
 232, 0.0916667, 0.0333333, 0.00833333
 233, 0.1, 0.0333333, 0.00833333
 234, 0.108333, 0.0333333, 0.00833333
 235, 0.0104167, 0.0416667, 0.00833333
 236, 0.01875, 0.0416667, 0.00833333
 237, 0.0270833, 0.0416667, 0.00833333
 238, 0.0354167, 0.0416667, 0.00833333
 239, 0.04375, 0.0416667, 0.00833333
 240, 0.0520833, 0.0416667, 0.00833333
 241, 0.0604167, 0.0416667, 0.00833333
 242, 0.06875, 0.0416667, 0.00833333
 243, 0.0770833, 0.0416667, 0.00833333
 244, 0.0854167, 0.0416667, 0.00833333
 245, 0.09375, 0.0416667, 0.00833333
 246, 0.102083, 0.0416667, 0.00833333
 247, 0.110417, 0.0416667, 0.00833333
 248, 0.0125, 0.05, 0.00833333
 249, 0.0208333, 0.05, 0.00833333
 250, 0.0291667, 0.05, 0.00833333
 251, 0.0375, 0.05, 0.00833333
 252, 0.0458333, 0.05, 0.00833333
 253, 0.0541667, 0.05, 0.00833333
 254, 0.0625, 0.05, 0.00833333
 255, 0.0708333, 0.05, 0.00833333
 256, 0.0791667, 0.05, 0.00833333
 257, 0.0875, 0.05, 0.00833333
 258, 0.0958333, 0.05, 0.00833333
 259, 0.104167, 0.05, 0.00833333
 260, 0.1125, 0.05, 0.00833333
 261, 0.0145833, 0.0583333, 0.00833333
 262, 0.0229167, 0.0583333, 0.00833333
 263, 0.03125, 0.0583333, 0.00833333
 264, 0.0395833, 0.0583333, 0.00833333
 265, 0.0479167, 0.0583333, 0.00833333
 266, 0.05625, 0.0583333, 0.00833333
 267, 0.0645833, 0.0583333, 0.00833333
 268, 0.0729167, 0.0583333, 0.00833333
 269, 0.08125, 0.0583333, 0.00833333
 270, 0.0895833, 0.0583333, 0.00833333
 271, 0.0979167, 0.0583333, 0.00833333
 272, 0.10625, 0.0583333, 0.00833333
 273, 0.114583, 0.0583333, 0.00833333
 274, 0.0166667, 0.0666667, 0.00833333
 275, 0.025, 0.0666667, 0.00833333
 276, 0.0333333, 0.0666667, 0.00833333
 277, 0.0416667, 0.0666667, 0.00833333
 278, 0.05, 0.0666667, 0.00833333
 279, 0.0583333, 0.0666667, 0.00833333
 280, 0.0666667, 0.0666667, 0.00833333
 281, 0.075, 0.0666667, 0.00833333
 282, 0.0833333, 0.0666667, 0.00833333
 283, 0.0916667, 0.0666667, 0.00833333
 284, 0.1, 0.0666667, 0.00833333
 285, 0.108333, 0.0666667, 0.00833333
 286, 0.116667, 0.0666667, 0.00833333
 287, 0.01875, 0.075, 0.00833333
 288, 0.0270833, 0.075, 0.00833333
 289, 0.0354167, 0.075, 0.00833333
 290, 0.04375, 0.075, 0.00833333
 291, 0.0520833, 0.075, 0.00833333
 292, 0.0604167, 0.075, 0.00833333
 293, 0.06875, 0.075, 0.00833333
 294, 0.0770833, 0.075, 0.00833333
 295, 0.0854167, 0.075, 0.00833333
 296, 0.09375, 0.075, 0.00833333
 297, 0.102083, 0.075, 0.00833333
 298, 0.110417, 0.075, 0.00833333
 299, 0.11875, 0.075, 0.00833333
 300, 0.0208333, 0.0833333, 0.00833333
 301, 0.0291667, 0.0833333, 0.00833333
 302, 0.0375, 0.0833333, 0.00833333
 303, 0.0458333, 0.0833333, 0.00833333
 304, 0.0541667, 0.0833333, 0.00833333
 305, 0.0625, 0.0833333, 0.00833333
 306, 0.0708333, 0.0833333, 0.00833333
 307, 0.0791667, 0.0833333, 0.00833333
 308, 0.0875, 0.0833333, 0.00833333
 309, 0.0958333, 0.0833333, 0.00833333
 310, 0.104167, 0.0833333, 0.00833333
 311, 0.1125, 0.0833333, 0.00833333
 312, 0.120833, 0.0833333, 0.00833333
 313, 0.0229167, 0.0916667, 0.00833333
 314, 0.03125, 0.0916667, 0.00833333
 315, 0.0395833, 0.0916667, 0.00833333
 316, 0.0479167, 0.0916667, 0.00833333
 317, 0.05625, 0.0916667, 0.00833333
 318, 0.0645833, 0.0916667, 0.00833333
 319, 0.0729167, 0.0916667, 0.00833333
 320, 0.08125, 0.0916667, 0.00833333
 321, 0.0895833, 0.0916667, 0.00833333
 322, 0.0979167, 0.0916667, 0.00833333
 323, 0.10625, 0.0916667, 0.00833333
 324, 0.114583, 0.0916667, 0.00833333
 325, 0.122917, 0.0916667, 0.00833333
 326, 0.025, 0.1, 0.00833333
 327, 0.0333333, 0.1, 0.00833333
 328, 0.0416667, 0.1, 0.00833333
 329, 0.05, 0.1, 0.00833333
 330, 0.0583333, 0.1, 0.00833333
 331, 0.0666667, 0.1, 0.00833333
 332, 0.075, 0.1, 0.00833333
 333, 0.0833333, 0.1, 0.00833333
 334, 0.0916667, 0.1, 0.00833333
 335, 0.1, 0.1, 0.00833333
 336, 0.108333, 0.1, 0.00833333
 337, 0.116667, 0.1, 0.00833333
 338, 0.125, 0.1, 0.00833333
*ELEMENT, TYPE=C3D8, ELSET=ALL
 1, 1, 2, 15, 14, 170, 171, 184, 183
 2, 2, 3, 16, 15, 171, 172, 185, 184
 3, 3, 4, 17, 16, 172, 173, 186, 185
 4, 4, 5, 18, 17, 173, 174, 187, 186
 5, 5, 6, 19, 18, 174, 175, 188, 187
 6, 6, 7, 20, 19, 175, 176, 189, 188
 7, 7, 8, 21, 20, 176, 177, 190, 189
 8, 8, 9, 22, 21, 177, 178, 191, 190
 9, 9, 10, 23, 22, 178, 179, 192, 191
 10, 10, 11, 24, 23, 179, 180, 193, 192
 11, 11, 12, 25, 24, 180, 181, 194, 193
 12, 12, 13, 26, 25, 181, 182, 195, 194
 13, 14, 15, 28, 27, 183, 184, 197, 196
 14, 15, 16, 29, 28, 184, 185, 198, 197
 15, 16, 17, 30, 29, 185, 186, 199, 198
 16, 17, 18, 31, 30, 186, 187, 200, 199
 17, 18, 19, 32, 31, 187, 188, 201, 200
 18, 19, 20, 33, 32, 188, 189, 202, 201
 19, 20, 21, 34, 33, 189, 190, 203, 202
 20, 21, 22, 35, 34, 190, 191, 204, 203
 21, 22, 23, 36, 35, 191, 192, 205, 204
 22, 23, 24, 37, 36, 192, 193, 206, 205
 23, 24, 25, 38, 37, 193, 194, 207, 206
 24, 25, 26, 39, 38, 194, 195, 208, 207
 25, 27, 28, 41, 40, 196, 197, 210, 209
 26, 28, 29, 42, 41, 197, 198, 211, 210
 27, 29, 30, 43, 42, 198, 199, 212, 211
 28, 30, 31, 44, 43, 199, 200, 213, 212
 29, 31, 32, 45, 44, 200, 201, 214, 213
 30, 32, 33, 46, 45, 201, 202, 215, 214
 31, 33, 34, 47, 46, 202, 203, 216, 215
 32, 34, 35, 48, 47, 203, 204, 217, 216
 33, 35, 36, 49, 48, 204, 205, 218, 217
 34, 36, 37, 50, 49, 205, 206, 219, 218
 35, 37, 38, 51, 50, 206, 207, 220, 219
 36, 38, 39, 52, 51, 207, 208, 221, 220
 37, 40, 41, 54, 53, 209, 210, 223, 222
 38, 41, 42, 55, 54, 210, 211, 224, 223
 39, 42, 43, 56, 55, 211, 212, 225, 224
 40, 43, 44, 57, 56, 212, 213, 226, 225
 41, 44, 45, 58, 57, 213, 214, 227, 226
 42, 45, 46, 59, 58, 214, 215, 228, 227
 43, 46, 47, 60, 59, 215, 216, 229, 228
 44, 47, 48, 61, 60, 216, 217, 230, 229
 45, 48, 49, 62, 61, 217, 218, 231, 230
 46, 49, 50, 63, 62, 218, 219, 232, 231
 47, 50, 51, 64, 63, 219, 220, 233, 232
 48, 51, 52, 65, 64, 220, 221, 234, 233
 49, 53, 54, 67, 66, 222, 223, 236, 235
 50, 54, 55, 68, 67, 223, 224, 237, 236
 51, 55, 56, 69, 68, 224, 225, 238, 237
 52, 56, 57, 70, 69, 225, 226, 239, 238
 53, 57, 58, 71, 70, 226, 227, 240, 239
 54, 58, 59, 72, 71, 227, 228, 241, 240
 55, 59, 60, 73, 72, 228, 229, 242, 241
 56, 60, 61, 74, 73, 229, 230, 243, 242
 57, 61, 62, 75, 74, 230, 231, 244, 243
 58, 62, 63, 76, 75, 231, 232, 245, 244
 59, 63, 64, 77, 76, 232, 233, 246, 245
 60, 64, 65, 78, 77, 233, 234, 247, 246
 61, 66, 67, 80, 79, 235, 236, 249, 248
 62, 67, 68, 81, 80, 236, 237, 250, 249
 63, 68, 69, 82, 81, 237, 238, 251, 250
 64, 69, 70, 83, 82, 238, 239, 252, 251
 65, 70, 71, 84, 83, 239, 240, 253, 252
 66, 71, 72, 85, 84, 240, 241, 254, 253
 67, 72, 73, 86, 85, 241, 242, 255, 254
 68, 73, 74, 87, 86, 242, 243, 256, 255
 69, 74, 75, 88, 87, 243, 244, 257, 256
 70, 75, 76, 89, 88, 244, 245, 258, 257
 71, 76, 77, 90, 89, 245, 246, 259, 258
 72, 77, 78, 91, 90, 246, 247, 260, 259
 73, 79, 80, 93, 92, 248, 249, 262, 261
 74, 80, 81, 94, 93, 249, 250, 263, 262
 75, 81, 82, 95, 94, 250, 251, 264, 263
 76, 82, 83, 96, 95, 251, 252, 265, 264
 77, 83, 84, 97, 96, 252, 253, 266, 265
 78, 84, 85, 98, 97, 253, 254, 267, 266
 79, 85, 86, 99, 98, 254, 255, 268, 267
 80, 86, 87, 100, 99, 255, 256, 269, 268
 81, 87, 88, 101, 100, 256, 257, 270, 269
 82, 88, 89, 102, 101, 257, 258, 271, 270
 83, 89, 90, 103, 102, 258, 259, 272, 271
 84, 90, 91, 104, 103, 259, 260, 273, 272
 85, 92, 93, 106, 105, 261, 262, 275, 274
 86, 93, 94, 107, 106, 262, 263, 276, 275
 87, 94, 95, 108, 107, 263, 264, 277, 276
 88, 95, 96, 109, 108, 264, 265, 278, 277
 89, 96, 97, 110, 109, 265, 266, 279, 278
 90, 97, 98, 111, 110, 266, 267, 280, 279
 91, 98, 99, 112, 111, 267, 268, 281, 280
 92, 99, 100, 113, 112, 268, 269, 282, 281
 93, 100, 101, 114, 113, 269, 270, 283, 282
 94, 101, 102, 115, 114, 270, 271, 284, 283
 95, 102, 103, 116, 115, 271, 272, 285, 284
 96, 103, 104, 117, 116, 272, 273, 286, 285
 97, 105, 106, 119, 118, 274, 275, 288, 287
 98, 106, 107, 120, 119, 275, 276, 289, 288
 99, 107, 108, 121, 120, 276, 277, 290, 289
 100, 108, 109, 122, 121, 277, 278, 291, 290
 101, 109, 110, 123, 122, 278, 279, 292, 291
 102, 110, 111, 124, 123, 279, 280, 293, 292
 103, 111, 112, 125, 124, 280, 281, 294, 293
 104, 112, 113, 126, 125, 281, 282, 295, 294
 105, 113, 114, 127, 126, 282, 283, 296, 295
 106, 114, 115, 128, 127, 283, 284, 297, 296
 107, 115, 116, 129, 128, 284, 285, 298, 297
 108, 116, 117, 130, 129, 285, 286, 299, 298
 109, 118, 119, 132, 131, 287, 288, 301, 300
 110, 119, 120, 133, 132, 288, 289, 302, 301
 111, 120, 121, 134, 133, 289, 290, 303, 302
 112, 121, 122, 135, 134, 290, 291, 304, 303
 113, 122, 123, 136, 135, 291, 292, 305, 304
 114, 123, 124, 137, 136, 292, 293, 306, 305
 115, 124, 125, 138, 137, 293, 294, 307, 306
 116, 125, 126, 139, 138, 294, 295, 308, 307
 117, 126, 127, 140, 139, 295, 296, 309, 308
 118, 127, 128, 141, 140, 296, 297, 310, 309
 119, 128, 129, 142, 141, 297, 298, 311, 310
 120, 129, 130, 143, 142, 298, 299, 312, 311
 121, 131, 132, 145, 144, 300, 301, 314, 313
 122, 132, 133, 146, 145, 301, 302, 315, 314
 123, 133, 134, 147, 146, 302, 303, 316, 315
 124, 134, 135, 148, 147, 303, 304, 317, 316
 125, 135, 136, 149, 148, 304, 305, 318, 317
 126, 136, 137, 150, 149, 305, 306, 319, 318
 127, 137, 138, 151, 150, 306, 307, 320, 319
 128, 138, 139, 152, 151, 307, 308, 321, 320
 129, 139, 140, 153, 152, 308, 309, 322, 321
 130, 140, 141, 154, 153, 309, 310, 323, 322
 131, 141, 142, 155, 154, 310, 311, 324, 323
 132, 142, 143, 156, 155, 311, 312, 325, 324
 133, 144, 145, 158, 157, 313, 314, 327, 326
 134, 145, 146, 159, 158, 314, 315, 328, 327
 135, 146, 147, 160, 159, 315, 316, 329, 328
 136, 147, 148, 161, 160, 316, 317, 330, 329
 137, 148, 149, 162, 161, 317, 318, 331, 330
 138, 149, 150, 163, 162, 318, 319, 332, 331
 139, 150, 151, 164, 163, 319, 320, 333, 332
 140, 151, 152, 165, 164, 320, 321, 334, 333
 141, 152, 153, 166, 165, 321, 322, 335, 334
 142, 153, 154, 167, 166, 322, 323, 336, 335
 143, 154, 155, 168, 167, 323, 324, 337, 336
 144, 155, 156, 169, 168, 324, 325, 338, 337
