** 12x6x2 の六面体メッシュ。上辺ほど x 方向へずれる（せん断 0.25）ので軸平行の箱格子ではなく、
** StructuredGridRecoveryProcess は拒否し、InpMeshProcess（面ベース非構造）で解く。
*NODE, NSET=NALL
 1, 0, 0, 0
 2, 0.05, 0, 0
 3, 0.1, 0, 0
 4, 0.15, 0, 0
 5, 0.2, 0, 0
 6, 0.25, 0, 0
 7, 0.3, 0, 0
 8, 0.35, 0, 0
 9, 0.4, 0, 0
 10, 0.45, 0, 0
 11, 0.5, 0, 0
 12, 0.55, 0, 0
 13, 0.6, 0, 0
 14, 0.0125, 0.05, 0
 15, 0.0625, 0.05, 0
 16, 0.1125, 0.05, 0
 17, 0.1625, 0.05, 0
 18, 0.2125, 0.05, 0
 19, 0.2625, 0.05, 0
 20, 0.3125, 0.05, 0
 21, 0.3625, 0.05, 0
 22, 0.4125, 0.05, 0
 23, 0.4625, 0.05, 0
 24, 0.5125, 0.05, 0
 25, 0.5625, 0.05, 0
 26, 0.6125, 0.05, 0
 27, 0.025, 0.1, 0
 28, 0.075, 0.1, 0
 29, 0.125, 0.1, 0
 30, 0.175, 0.1, 0
 31, 0.225, 0.1, 0
 32, 0.275, 0.1, 0
 33, 0.325, 0.1, 0
 34, 0.375, 0.1, 0
 35, 0.425, 0.1, 0
 36, 0.475, 0.1, 0
 37, 0.525, 0.1, 0
 38, 0.575, 0.1, 0
 39, 0.625, 0.1, 0
 40, 0.0375, 0.15, 0
 41, 0.0875, 0.15, 0
 42, 0.1375, 0.15, 0
 43, 0.1875, 0.15, 0
 44, 0.2375, 0.15, 0
 45, 0.2875, 0.15, 0
 46, 0.3375, 0.15, 0
 47, 0.3875, 0.15, 0
 48, 0.4375, 0.15, 0
 49, 0.4875, 0.15, 0
 50, 0.5375, 0.15, 0
 51, 0.5875, 0.15, 0
 52, 0.6375, 0.15, 0
 53, 0.05, 0.2, 0
 54, 0.1, 0.2, 0
 55, 0.15, 0.2, 0
 56, 0.2, 0.2, 0
 57, 0.25, 0.2, 0
 58, 0.3, 0.2, 0
 59, 0.35, 0.2, 0
 60, 0.4, 0.2, 0
 61, 0.45, 0.2, 0
 62, 0.5, 0.2, 0
 63, 0.55, 0.2, 0
 64, 0.6, 0.2, 0
 65, 0.65, 0.2, 0
 66, 0.0625, 0.25, 0
 67, 0.1125, 0.25, 0
 68, 0.1625, 0.25, 0
 69, 0.2125, 0.25, 0
 70, 0.2625, 0.25, 0
 71, 0.3125, 0.25, 0
 72, 0.3625, 0.25, 0
 73, 0.4125, 0.25, 0
 74, 0.4625, 0.25, 0
 75, 0.5125, 0.25, 0
 76, 0.5625, 0.25, 0
 77, 0.6125, 0.25, 0
 78, 0.6625, 0.25, 0
 79, 0.075, 0.3, 0
 80, 0.125, 0.3, 0
 81, 0.175, 0.3, 0
 82, 0.225, 0.3, 0
 83, 0.275, 0.3, 0
 84, 0.325, 0.3, 0
 85, 0.375, 0.3, 0
 86, 0.425, 0.3, 0
 87, 0.475, 0.3, 0
 88, 0.525, 0.3, 0
 89, 0.575, 0.3, 0
 90, 0.625, 0.3, 0
 91, 0.675, 0.3, 0
 92, 0, 0, 0.05
 93, 0.05, 0, 0.05
 94, 0.1, 0, 0.05
 95, 0.15, 0, 0.05
 96, 0.2, 0, 0.05
 97, 0.25, 0, 0.05
 98, 0.3, 0, 0.05
 99, 0.35, 0, 0.05
 100, 0.4, 0, 0.05
 101, 0.45, 0, 0.05
 102, 0.5, 0, 0.05
 103, 0.55, 0, 0.05
 104, 0.6, 0, 0.05
 105, 0.0125, 0.05, 0.05
 106, 0.0625, 0.05, 0.05
 107, 0.1125, 0.05, 0.05
 108, 0.1625, 0.05, 0.05
 109, 0.2125, 0.05, 0.05
 110, 0.2625, 0.05, 0.05
 111, 0.3125, 0.05, 0.05
 112, 0.3625, 0.05, 0.05
 113, 0.4125, 0.05, 0.05
 114, 0.4625, 0.05, 0.05
 115, 0.5125, 0.05, 0.05
 116, 0.5625, 0.05, 0.05
 117, 0.6125, 0.05, 0.05
 118, 0.025, 0.1, 0.05
 119, 0.075, 0.1, 0.05
 120, 0.125, 0.1, 0.05
 121, 0.175, 0.1, 0.05
 122, 0.225, 0.1, 0.05
 123, 0.275, 0.1, 0.05
 124, 0.325, 0.1, 0.05
 125, 0.375, 0.1, 0.05
 126, 0.425, 0.1, 0.05
 127, 0.475, 0.1, 0.05
 128, 0.525, 0.1, 0.05
 129, 0.575, 0.1, 0.05
 130, 0.625, 0.1, 0.05
 131, 0.0375, 0.15, 0.05
 132, 0.0875, 0.15, 0.05
 133, 0.1375, 0.15, 0.05
 134, 0.1875, 0.15, 0.05
 135, 0.2375, 0.15, 0.05
 136, 0.2875, 0.15, 0.05
 137, 0.3375, 0.15, 0.05
 138, 0.3875, 0.15, 0.05
 139, 0.4375, 0.15, 0.05
 140, 0.4875, 0.15, 0.05
 141, 0.5375, 0.15, 0.05
 142, 0.5875, 0.15, 0.05
 143, 0.6375, 0.15, 0.05
 144, 0.05, 0.2, 0.05
 145, 0.1, 0.2, 0.05
 146, 0.15, 0.2, 0.05
 147, 0.2, 0.2, 0.05
 148, 0.25, 0.2, 0.05
 149, 0.3, 0.2, 0.05
 150, 0.35, 0.2, 0.05
 151, 0.4, 0.2, 0.05
 152, 0.45, 0.2, 0.05
 153, 0.5, 0.2, 0.05
 154, 0.55, 0.2, 0.05
 155, 0.6, 0.2, 0.05
 156, 0.65, 0.2, 0.05
 157, 0.0625, 0.25, 0.05
 158, 0.1125, 0.25, 0.05
 159, 0.1625, 0.25, 0.05
 160, 0.2125, 0.25, 0.05
 161, 0.2625, 0.25, 0.05
 162, 0.3125, 0.25, 0.05
 163, 0.3625, 0.25, 0.05
 164, 0.4125, 0.25, 0.05
 165, 0.4625, 0.25, 0.05
 166, 0.5125, 0.25, 0.05
 167, 0.5625, 0.25, 0.05
 168, 0.6125, 0.25, 0.05
 169, 0.6625, 0.25, 0.05
 170, 0.075, 0.3, 0.05
 171, 0.125, 0.3, 0.05
 172, 0.175, 0.3, 0.05
 173, 0.225, 0.3, 0.05
 174, 0.275, 0.3, 0.05
 175, 0.325, 0.3, 0.05
 176, 0.375, 0.3, 0.05
 177, 0.425, 0.3, 0.05
 178, 0.475, 0.3, 0.05
 179, 0.525, 0.3, 0.05
 180, 0.575, 0.3, 0.05
 181, 0.625, 0.3, 0.05
 182, 0.675, 0.3, 0.05
 183, 0, 0, 0.1
 184, 0.05, 0, 0.1
 185, 0.1, 0, 0.1
 186, 0.15, 0, 0.1
 187, 0.2, 0, 0.1
 188, 0.25, 0, 0.1
 189, 0.3, 0, 0.1
 190, 0.35, 0, 0.1
 191, 0.4, 0, 0.1
 192, 0.45, 0, 0.1
 193, 0.5, 0, 0.1
 194, 0.55, 0, 0.1
 195, 0.6, 0, 0.1
 196, 0.0125, 0.05, 0.1
 197, 0.0625, 0.05, 0.1
 198, 0.1125, 0.05, 0.1
 199, 0.1625, 0.05, 0.1
 200, 0.2125, 0.05, 0.1
 201, 0.2625, 0.05, 0.1
 202, 0.3125, 0.05, 0.1
 203, 0.3625, 0.05, 0.1
 204, 0.4125, 0.05, 0.1
 205, 0.4625, 0.05, 0.1
 206, 0.5125, 0.05, 0.1
 207, 0.5625, 0.05, 0.1
 208, 0.6125, 0.05, 0.1
 209, 0.025, 0.1, 0.1
 210, 0.075, 0.1, 0.1
 211, 0.125, 0.1, 0.1
 212, 0.175, 0.1, 0.1
 213, 0.225, 0.1, 0.1
 214, 0.275, 0.1, 0.1
 215, 0.325, 0.1, 0.1
 216, 0.375, 0.1, 0.1
 217, 0.425, 0.1, 0.1
 218, 0.475, 0.1, 0.1
 219, 0.525, 0.1, 0.1
 220, 0.575, 0.1, 0.1
 221, 0.625, 0.1, 0.1
 222, 0.0375, 0.15, 0.1
 223, 0.0875, 0.15, 0.1
 224, 0.1375, 0.15, 0.1
 225, 0.1875, 0.15, 0.1
 226, 0.2375, 0.15, 0.1
 227, 0.2875, 0.15, 0.1
 228, 0.3375, 0.15, 0.1
 229, 0.3875, 0.15, 0.1
 230, 0.4375, 0.15, 0.1
 231, 0.4875, 0.15, 0.1
 232, 0.5375, 0.15, 0.1
 233, 0.5875, 0.15, 0.1
 234, 0.6375, 0.15, 0.1
 235, 0.05, 0.2, 0.1
 236, 0.1, 0.2, 0.1
 237, 0.15, 0.2, 0.1
 238, 0.2, 0.2, 0.1
 239, 0.25, 0.2, 0.1
 240, 0.3, 0.2, 0.1
 241, 0.35, 0.2, 0.1
 242, 0.4, 0.2, 0.1
 243, 0.45, 0.2, 0.1
 244, 0.5, 0.2, 0.1
 245, 0.55, 0.2, 0.1
 246, 0.6, 0.2, 0.1
 247, 0.65, 0.2, 0.1
 248, 0.0625, 0.25, 0.1
 249, 0.1125, 0.25, 0.1
 250, 0.1625, 0.25, 0.1
 251, 0.2125, 0.25, 0.1
 252, 0.2625, 0.25, 0.1
 253, 0.3125, 0.25, 0.1
 254, 0.3625, 0.25, 0.1
 255, 0.4125, 0.25, 0.1
 256, 0.4625, 0.25, 0.1
 257, 0.5125, 0.25, 0.1
 258, 0.5625, 0.25, 0.1
 259, 0.6125, 0.25, 0.1
 260, 0.6625, 0.25, 0.1
 261, 0.075, 0.3, 0.1
 262, 0.125, 0.3, 0.1
 263, 0.175, 0.3, 0.1
 264, 0.225, 0.3, 0.1
 265, 0.275, 0.3, 0.1
 266, 0.325, 0.3, 0.1
 267, 0.375, 0.3, 0.1
 268, 0.425, 0.3, 0.1
 269, 0.475, 0.3, 0.1
 270, 0.525, 0.3, 0.1
 271, 0.575, 0.3, 0.1
 272, 0.625, 0.3, 0.1
 273, 0.675, 0.3, 0.1
*ELEMENT, TYPE=C3D8, ELSET=ALL
 1, 1, 2, 15, 14, 92, 93, 106, 105
 2, 2, 3, 16, 15, 93, 94, 107, 106
 3, 3, 4, 17, 16, 94, 95, 108, 107
 4, 4, 5, 18, 17, 95, 96, 109, 108
 5, 5, 6, 19, 18, 96, 97, 110, 109
 6, 6, 7, 20, 19, 97, 98, 111, 110
 7, 7, 8, 21, 20, 98, 99, 112, 111
 8, 8, 9, 22, 21, 99, 100, 113, 112
 9, 9, 10, 23, 22, 100, 101, 114, 113
 10, 10, 11, 24, 23, 101, 102, 115, 114
 11, 11, 12, 25, 24, 102, 103, 116, 115
 12, 12, 13, 26, 25, 103, 104, 117, 116
 13, 14, 15, 28, 27, 105, 106, 119, 118
 14, 15, 16, 29, 28, 106, 107, 120, 119
 15, 16, 17, 30, 29, 107, 108, 121, 120
 16, 17, 18, 31, 30, 108, 109, 122, 121
 17, 18, 19, 32, 31, 109, 110, 123, 122
 18, 19, 20, 33, 32, 110, 111, 124, 123
 19, 20, 21, 34, 33, 111, 112, 125, 124
 20, 21, 22, 35, 34, 112, 113, 126, 125
 21, 22, 23, 36, 35, 113, 114, 127, 126
 22, 23, 24, 37, 36, 114, 115, 128, 127
 23, 24, 25, 38, 37, 115, 116, 129, 128
 24, 25, 26, 39, 38, 116, 117, 130, 129
 25, 27, 28, 41, 40, 118, 119, 132, 131
 26, 28, 29, 42, 41, 119, 120, 133, 132
 27, 29, 30, 43, 42, 120, 121, 134, 133
 28, 30, 31, 44, 43, 121, 122, 135, 134
 29, 31, 32, 45, 44, 122, 123, 136, 135
 30, 32, 33, 46, 45, 123, 124, 137, 136
 31, 33, 34, 47, 46, 124, 125, 138, 137
 32, 34, 35, 48, 47, 125, 126, 139, 138
 33, 35, 36, 49, 48, 126, 127, 140, 139
 34, 36, 37, 50, 49, 127, 128, 141, 140
 35, 37, 38, 51, 50, 128, 129, 142, 141
 36, 38, 39, 52, 51, 129, 130, 143, 142
 37, 40, 41, 54, 53, 131, 132, 145, 144
 38, 41, 42, 55, 54, 132, 133, 146, 145
 39, 42, 43, 56, 55, 133, 134, 147, 146
 40, 43, 44, 57, 56, 134, 135, 148, 147
 41, 44, 45, 58, 57, 135, 136, 149, 148
 42, 45, 46, 59, 58, 136, 137, 150, 149
 43, 46, 47, 60, 59, 137, 138, 151, 150
 44, 47, 48, 61, 60, 138, 139, 152, 151
 45, 48, 49, 62, 61, 139, 140, 153, 152
 46, 49, 50, 63, 62, 140, 141, 154, 153
 47, 50, 51, 64, 63, 141, 142, 155, 154
 48, 51, 52, 65, 64, 142, 143, 156, 155
 49, 53, 54, 67, 66, 144, 145, 158, 157
 50, 54, 55, 68, 67, 145, 146, 159, 158
 51, 55, 56, 69, 68, 146, 147, 160, 159
 52, 56, 57, 70, 69, 147, 148, 161, 160
 53, 57, 58, 71, 70, 148, 149, 162, 161
 54, 58, 59, 72, 71, 149, 150, 163, 162
 55, 59, 60, 73, 72, 150, 151, 164, 163
 56, 60, 61, 74, 73, 151, 152, 165, 164
 57, 61, 62, 75, 74, 152, 153, 166, 165
 58, 62, 63, 76, 75, 153, 154, 167, 166
 59, 63, 64, 77, 76, 154, 155, 168, 167
 60, 64, 65, 78, 77, 155, 156, 169, 168
 61, 66, 67, 80, 79, 157, 158, 171, 170
 62, 67, 68, 81, 80, 158, 159, 172, 171
 63, 68, 69, 82, 81, 159, 160, 173, 172
 64, 69, 70, 83, 82, 160, 161, 174, 173
 65, 70, 71, 84, 83, 161, 162, 175, 174
 66, 71, 72, 85, 84, 162, 163, 176, 175
 67, 72, 73, 86, 85, 163, 164, 177, 176
 68, 73, 74, 87, 86, 164, 165, 178, 177
 69, 74, 75, 88, 87, 165, 166, 179, 178
 70, 75, 76, 89, 88, 166, 167, 180, 179
 71, 76, 77, 90, 89, 167, 168, 181, 180
 72, 77, 78, 91, 90, 168, 169, 182, 181
 73, 92, 93, 106, 105, 183, 184, 197, 196
 74, 93, 94, 107, 106, 184, 185, 198, 197
 75, 94, 95, 108, 107, 185, 186, 199, 198
 76, 95, 96, 109, 108, 186, 187, 200, 199
 77, 96, 97, 110, 109, 187, 188, 201, 200
 78, 97, 98, 111, 110, 188, 189, 202, 201
 79, 98, 99, 112, 111, 189, 190, 203, 202
 80, 99, 100, 113, 112, 190, 191, 204, 203
 81, 100, 101, 114, 113, 191, 192, 205, 204
 82, 101, 102, 115, 114, 192, 193, 206, 205
 83, 102, 103, 116, 115, 193, 194, 207, 206
 84, 103, 104, 117, 116, 194, 195, 208, 207
 85, 105, 106, 119, 118, 196, 197, 210, 209
 86, 106, 107, 120, 119, 197, 198, 211, 210
 87, 107, 108, 121, 120, 198, 199, 212, 211
 88, 108, 109, 122, 121, 199, 200, 213, 212
 89, 109, 110, 123, 122, 200, 201, 214, 213
 90, 110, 111, 124, 123, 201, 202, 215, 214
 91, 111, 112, 125, 124, 202, 203, 216, 215
 92, 112, 113, 126, 125, 203, 204, 217, 216
 93, 113, 114, 127, 126, 204, 205, 218, 217
 94, 114, 115, 128, 127, 205, 206, 219, 218
 95, 115, 116, 129, 128, 206, 207, 220, 219
 96, 116, 117, 130, 129, 207, 208, 221, 220
 97, 118, 119, 132, 131, 209, 210, 223, 222
 98, 119, 120, 133, 132, 210, 211, 224, 223
 99, 120, 121, 134, 133, 211, 212, 225, 224
 100, 121, 122, 135, 134, 212, 213, 226, 225
 101, 122, 123, 136, 135, 213, 214, 227, 226
 102, 123, 124, 137, 136, 214, 215, 228, 227
 103, 124, 125, 138, 137, 215, 216, 229, 228
 104, 125, 126, 139, 138, 216, 217, 230, 229
 105, 126, 127, 140, 139, 217, 218, 231, 230
 106, 127, 128, 141, 140, 218, 219, 232, 231
 107, 128, 129, 142, 141, 219, 220, 233, 232
 108, 129, 130, 143, 142, 220, 221, 234, 233
 109, 131, 132, 145, 144, 222, 223, 236, 235
 110, 132, 133, 146, 145, 223, 224, 237, 236
 111, 133, 134, 147, 146, 224, 225, 238, 237
 112, 134, 135, 148, 147, 225, 226, 239, 238
 113, 135, 136, 149, 148, 226, 227, 240, 239
 114, 136, 137, 150, 149, 227, 228, 241, 240
 115, 137, 138, 151, 150, 228, 229, 242, 241
 116, 138, 139, 152, 151, 229, 230, 243, 242
 117, 139, 140, 153, 152, 230, 231, 244, 243
 118, 140, 141, 154, 153, 231, 232, 245, 244
 119, 141, 142, 155, 154, 232, 233, 246, 245
 120, 142, 143, 156, 155, 233, 234, 247, 246
 121, 144, 145, 158, 157, 235, 236, 249, 248
 122, 145, 146, 159, 158, 236, 237, 250, 249
 123, 146, 147, 160, 159, 237, 238, 251, 250
 124, 147, 148, 161, 160, 238, 239, 252, 251
 125, 148, 149, 162, 161, 239, 240, 253, 252
 126, 149, 150, 163, 162, 240, 241, 254, 253
 127, 150, 151, 164, 163, 241, 242, 255, 254
 128, 151, 152, 165, 164, 242, 243, 256, 255
 129, 152, 153, 166, 165, 243, 244, 257, 256
 130, 153, 154, 167, 166, 244, 245, 258, 257
 131, 154, 155, 168, 167, 245, 246, 259, 258
 132, 155, 156, 169, 168, 246, 247, 260, 259
 133, 157, 158, 171, 170, 248, 249, 262, 261
 134, 158, 159, 172, 171, 249, 250, 263, 262
 135, 159, 160, 173, 172, 250, 251, 264, 263
 136, 160, 161, 174, 173, 251, 252, 265, 264
 137, 161, 162, 175, 174, 252, 253, 266, 265
 138, 162, 163, 176, 175, 253, 254, 267, 266
 139, 163, 164, 177, 176, 254, 255, 268, 267
 140, 164, 165, 178, 177, 255, 256, 269, 268
 141, 165, 166, 179, 178, 256, 257, 270, 269
 142, 166, 167, 180, 179, 257, 258, 271, 270
 143, 167, 168, 181, 180, 258, 259, 272, 271
 144, 168, 169, 182, 181, 259, 260, 273, 272
*ELSET, ELSET=CLAY
 17, 18, 19, 20, 29, 30, 31, 32, 41, 42, 43, 44, 53, 54, 55, 56
 89, 90, 91, 92, 101, 102, 103, 104, 113, 114, 115, 116, 125, 126, 127, 128
*ELSET, ELSET=SAND
 1, 2, 3, 4, 5, 6, 7, 8, 9, 10, 11, 12, 13, 14, 15, 16
 21, 22, 23, 24, 25, 26, 27, 28, 33, 34, 35, 36, 37, 38, 39, 40
 45, 46, 47, 48, 49, 50, 51, 52, 57, 58, 59, 60, 61, 62, 63, 64
 65, 66, 67, 68, 69, 70, 71, 72, 73, 74, 75, 76, 77, 78, 79, 80
 81, 82, 83, 84, 85, 86, 87, 88, 93, 94, 95, 96, 97, 98, 99, 100
 105, 106, 107, 108, 109, 110, 111, 112, 117, 118, 119, 120, 121, 122, 123, 124
 129, 130, 131, 132, 133, 134, 135, 136, 137, 138, 139, 140, 141, 142, 143, 144
*SURFACE, NAME=INLET, TYPE=ELEMENT
 1, S6
 13, S6
 25, S6
 37, S6
 49, S6
 61, S6
 73, S6
 85, S6
 97, S6
 109, S6
 121, S6
 133, S6
*SURFACE, NAME=OUTLET, TYPE=ELEMENT
 12, S4
 24, S4
 36, S4
 48, S4
 60, S4
 72, S4
 84, S4
 96, S4
 108, S4
 120, S4
 132, S4
 144, S4
