*HEADING
 single screw metering channel (unrolled 2.5D, generic notation) D=40mm N=1/s G=1e5 Pa/m
*NODE
 1, 0.0, 0.0, 0.0
 2, 0.0008905920628358133, 0.0, 0.0
 3, 0.0017515096429939181, 0.0, 0.0
 4, 0.002583741492742537, 0.0, 0.0
 5, 0.0033882434191741147, 0.0, 0.0
 6, 0.004165939381936917, 0.0, 0.0
 7, 0.004917722554390265, 0.0, 0.0
 8, 0.005644456349402134, 0.0, 0.0
 9, 0.006346975410967226, 0.0, 0.0
 10, 0.007026086572784376, 0.0, 0.0
 11, 0.007682569784894212, 0.0, 0.0
 12, 0.008317179009441292, 0.0, 0.0
 13, 0.008930643086589493, 0.0, 0.0
 14, 0.009523666571585137, 0.0, 0.0
 15, 0.010096930543929227, 0.0, 0.0
 16, 0.010651093389588097, 0.0, 0.0
 17, 0.01118679155714084, 0.0, 0.0
 18, 0.011704640288731954, 0.0, 0.0
 19, 0.012205234326668665, 0.0, 0.0
 20, 0.012689148596474482, 0.0, 0.0
 21, 0.013156938867183424, 0.0, 0.0
 22, 0.01360914238963329, 0.0, 0.0
 23, 0.014046278513491023, 0.0, 0.0
 24, 0.01446884928371882, 0.0, 0.0
 25, 0.014877340017166027, 0.0, 0.0
 26, 0.01527221985994901, 0.0, 0.0
 27, 0.01565394232625917, 0.0, 0.0
 28, 0.016022945819217888, 0.0, 0.0
 29, 0.01637965413437663, 0.0, 0.0
 30, 0.016724476946440418, 0.0, 0.0
 31, 0.01705781027977375, 0.0, 0.0
 43, 0.021057810279773766, 0.0, 0.0
 44, 0.021391143613107098, 0.0, 0.0
 45, 0.021735966425170887, 0.0, 0.0
 46, 0.022092674740329627, 0.0, 0.0
 47, 0.022461678233288346, 0.0, 0.0
 48, 0.022843400699598504, 0.0, 0.0
 49, 0.023238280542381487, 0.0, 0.0
 50, 0.023646771275828694, 0.0, 0.0
 51, 0.024069342046056492, 0.0, 0.0
 52, 0.024506478169914223, 0.0, 0.0
 53, 0.02495868169236409, 0.0, 0.0
 54, 0.02542647196307303, 0.0, 0.0
 55, 0.025910386232878845, 0.0, 0.0
 56, 0.026410980270815558, 0.0, 0.0
 57, 0.026928829002406673, 0.0, 0.0
 58, 0.027464527169959417, 0.0, 0.0
 59, 0.028018690015618287, 0.0, 0.0
 60, 0.02859195398796238, 0.0, 0.0
 61, 0.02918497747295802, 0.0, 0.0
 62, 0.02979844155010622, 0.0, 0.0
 63, 0.0304330507746533, 0.0, 0.0
 64, 0.031089533986763136, 0.0, 0.0
 65, 0.031768645148580285, 0.0, 0.0
 66, 0.03247116421014538, 0.0, 0.0
 67, 0.033197898005157246, 0.0, 0.0
 68, 0.033949681177610595, 0.0, 0.0
 69, 0.0347273771403734, 0.0, 0.0
 70, 0.035531879066804974, 0.0, 0.0
 71, 0.036364110916553595, 0.0, 0.0
 72, 0.0372250284967117, 0.0, 0.0
 73, 0.038115620559547515, 0.0, 0.0
 74, 0.0, 0.0004801840020688147, 0.0
 75, 0.0008905920628358133, 0.0004801840020688147, 0.0
 76, 0.0017515096429939181, 0.0004801840020688147, 0.0
 77, 0.002583741492742537, 0.0004801840020688147, 0.0
 78, 0.0033882434191741147, 0.0004801840020688147, 0.0
 79, 0.004165939381936917, 0.0004801840020688147, 0.0
 80, 0.004917722554390265, 0.0004801840020688147, 0.0
 81, 0.005644456349402134, 0.0004801840020688147, 0.0
 82, 0.006346975410967226, 0.0004801840020688147, 0.0
 83, 0.007026086572784376, 0.0004801840020688147, 0.0
 84, 0.007682569784894212, 0.0004801840020688147, 0.0
 85, 0.008317179009441292, 0.0004801840020688147, 0.0
 86, 0.008930643086589493, 0.0004801840020688147, 0.0
 87, 0.009523666571585137, 0.0004801840020688147, 0.0
 88, 0.010096930543929227, 0.0004801840020688147, 0.0
 89, 0.010651093389588097, 0.0004801840020688147, 0.0
 90, 0.01118679155714084, 0.0004801840020688147, 0.0
 91, 0.011704640288731954, 0.0004801840020688147, 0.0
 92, 0.012205234326668665, 0.0004801840020688147, 0.0
 93, 0.012689148596474482, 0.0004801840020688147, 0.0
 94, 0.013156938867183424, 0.0004801840020688147, 0.0
 95, 0.01360914238963329, 0.0004801840020688147, 0.0
 96, 0.014046278513491023, 0.0004801840020688147, 0.0
 97, 0.01446884928371882, 0.0004801840020688147, 0.0
 98, 0.014877340017166027, 0.0004801840020688147, 0.0
 99, 0.01527221985994901, 0.0004801840020688147, 0.0
 100, 0.01565394232625917, 0.0004801840020688147, 0.0
 101, 0.016022945819217888, 0.0004801840020688147, 0.0
 102, 0.01637965413437663, 0.0004801840020688147, 0.0
 103, 0.016724476946440418, 0.0004801840020688147, 0.0
 104, 0.01705781027977375, 0.0004801840020688147, 0.0
 116, 0.021057810279773766, 0.0004801840020688147, 0.0
 117, 0.021391143613107098, 0.0004801840020688147, 0.0
 118, 0.021735966425170887, 0.0004801840020688147, 0.0
 119, 0.022092674740329627, 0.0004801840020688147, 0.0
 120, 0.022461678233288346, 0.0004801840020688147, 0.0
 121, 0.022843400699598504, 0.0004801840020688147, 0.0
 122, 0.023238280542381487, 0.0004801840020688147, 0.0
 123, 0.023646771275828694, 0.0004801840020688147, 0.0
 124, 0.024069342046056492, 0.0004801840020688147, 0.0
 125, 0.024506478169914223, 0.0004801840020688147, 0.0
 126, 0.02495868169236409, 0.0004801840020688147, 0.0
 127, 0.02542647196307303, 0.0004801840020688147, 0.0
 128, 0.025910386232878845, 0.0004801840020688147, 0.0
 129, 0.026410980270815558, 0.0004801840020688147, 0.0
 130, 0.026928829002406673, 0.0004801840020688147, 0.0
 131, 0.027464527169959417, 0.0004801840020688147, 0.0
 132, 0.028018690015618287, 0.0004801840020688147, 0.0
 133, 0.02859195398796238, 0.0004801840020688147, 0.0
 134, 0.02918497747295802, 0.0004801840020688147, 0.0
 135, 0.02979844155010622, 0.0004801840020688147, 0.0
 136, 0.0304330507746533, 0.0004801840020688147, 0.0
 137, 0.031089533986763136, 0.0004801840020688147, 0.0
 138, 0.031768645148580285, 0.0004801840020688147, 0.0
 139, 0.03247116421014538, 0.0004801840020688147, 0.0
 140, 0.033197898005157246, 0.0004801840020688147, 0.0
 141, 0.033949681177610595, 0.0004801840020688147, 0.0
 142, 0.0347273771403734, 0.0004801840020688147, 0.0
 143, 0.035531879066804974, 0.0004801840020688147, 0.0
 144, 0.036364110916553595, 0.0004801840020688147, 0.0
 145, 0.0372250284967117, 0.0004801840020688147, 0.0
 146, 0.038115620559547515, 0.0004801840020688147, 0.0
 147, 0.0, 0.0009024681165108471, 0.0
 148, 0.0008905920628358133, 0.0009024681165108471, 0.0
 149, 0.0017515096429939181, 0.0009024681165108471, 0.0
 150, 0.002583741492742537, 0.0009024681165108471, 0.0
 151, 0.0033882434191741147, 0.0009024681165108471, 0.0
 152, 0.004165939381936917, 0.0009024681165108471, 0.0
 153, 0.004917722554390265, 0.0009024681165108471, 0.0
 154, 0.005644456349402134, 0.0009024681165108471, 0.0
 155, 0.006346975410967226, 0.0009024681165108471, 0.0
 156, 0.007026086572784376, 0.0009024681165108471, 0.0
 157, 0.007682569784894212, 0.0009024681165108471, 0.0
 158, 0.008317179009441292, 0.0009024681165108471, 0.0
 159, 0.008930643086589493, 0.0009024681165108471, 0.0
 160, 0.009523666571585137, 0.0009024681165108471, 0.0
 161, 0.010096930543929227, 0.0009024681165108471, 0.0
 162, 0.010651093389588097, 0.0009024681165108471, 0.0
 163, 0.01118679155714084, 0.0009024681165108471, 0.0
 164, 0.011704640288731954, 0.0009024681165108471, 0.0
 165, 0.012205234326668665, 0.0009024681165108471, 0.0
 166, 0.012689148596474482, 0.0009024681165108471, 0.0
 167, 0.013156938867183424, 0.0009024681165108471, 0.0
 168, 0.01360914238963329, 0.0009024681165108471, 0.0
 169, 0.014046278513491023, 0.0009024681165108471, 0.0
 170, 0.01446884928371882, 0.0009024681165108471, 0.0
 171, 0.014877340017166027, 0.0009024681165108471, 0.0
 172, 0.01527221985994901, 0.0009024681165108471, 0.0
 173, 0.01565394232625917, 0.0009024681165108471, 0.0
 174, 0.016022945819217888, 0.0009024681165108471, 0.0
 175, 0.01637965413437663, 0.0009024681165108471, 0.0
 176, 0.016724476946440418, 0.0009024681165108471, 0.0
 177, 0.01705781027977375, 0.0009024681165108471, 0.0
 189, 0.021057810279773766, 0.0009024681165108471, 0.0
 190, 0.021391143613107098, 0.0009024681165108471, 0.0
 191, 0.021735966425170887, 0.0009024681165108471, 0.0
 192, 0.022092674740329627, 0.0009024681165108471, 0.0
 193, 0.022461678233288346, 0.0009024681165108471, 0.0
 194, 0.022843400699598504, 0.0009024681165108471, 0.0
 195, 0.023238280542381487, 0.0009024681165108471, 0.0
 196, 0.023646771275828694, 0.0009024681165108471, 0.0
 197, 0.024069342046056492, 0.0009024681165108471, 0.0
 198, 0.024506478169914223, 0.0009024681165108471, 0.0
 199, 0.02495868169236409, 0.0009024681165108471, 0.0
 200, 0.02542647196307303, 0.0009024681165108471, 0.0
 201, 0.025910386232878845, 0.0009024681165108471, 0.0
 202, 0.026410980270815558, 0.0009024681165108471, 0.0
 203, 0.026928829002406673, 0.0009024681165108471, 0.0
 204, 0.027464527169959417, 0.0009024681165108471, 0.0
 205, 0.028018690015618287, 0.0009024681165108471, 0.0
 206, 0.02859195398796238, 0.0009024681165108471, 0.0
 207, 0.02918497747295802, 0.0009024681165108471, 0.0
 208, 0.02979844155010622, 0.0009024681165108471, 0.0
 209, 0.0304330507746533, 0.0009024681165108471, 0.0
 210, 0.031089533986763136, 0.0009024681165108471, 0.0
 211, 0.031768645148580285, 0.0009024681165108471, 0.0
 212, 0.03247116421014538, 0.0009024681165108471, 0.0
 213, 0.033197898005157246, 0.0009024681165108471, 0.0
 214, 0.033949681177610595, 0.0009024681165108471, 0.0
 215, 0.0347273771403734, 0.0009024681165108471, 0.0
 216, 0.035531879066804974, 0.0009024681165108471, 0.0
 217, 0.036364110916553595, 0.0009024681165108471, 0.0
 218, 0.0372250284967117, 0.0009024681165108471, 0.0
 219, 0.038115620559547515, 0.0009024681165108471, 0.0
 220, 0.0, 0.0012738338274504136, 0.0
 221, 0.0008905920628358133, 0.0012738338274504136, 0.0
 222, 0.0017515096429939181, 0.0012738338274504136, 0.0
 223, 0.002583741492742537, 0.0012738338274504136, 0.0
 224, 0.0033882434191741147, 0.0012738338274504136, 0.0
 225, 0.004165939381936917, 0.0012738338274504136, 0.0
 226, 0.004917722554390265, 0.0012738338274504136, 0.0
 227, 0.005644456349402134, 0.0012738338274504136, 0.0
 228, 0.006346975410967226, 0.0012738338274504136, 0.0
 229, 0.007026086572784376, 0.0012738338274504136, 0.0
 230, 0.007682569784894212, 0.0012738338274504136, 0.0
 231, 0.008317179009441292, 0.0012738338274504136, 0.0
 232, 0.008930643086589493, 0.0012738338274504136, 0.0
 233, 0.009523666571585137, 0.0012738338274504136, 0.0
 234, 0.010096930543929227, 0.0012738338274504136, 0.0
 235, 0.010651093389588097, 0.0012738338274504136, 0.0
 236, 0.01118679155714084, 0.0012738338274504136, 0.0
 237, 0.011704640288731954, 0.0012738338274504136, 0.0
 238, 0.012205234326668665, 0.0012738338274504136, 0.0
 239, 0.012689148596474482, 0.0012738338274504136, 0.0
 240, 0.013156938867183424, 0.0012738338274504136, 0.0
 241, 0.01360914238963329, 0.0012738338274504136, 0.0
 242, 0.014046278513491023, 0.0012738338274504136, 0.0
 243, 0.01446884928371882, 0.0012738338274504136, 0.0
 244, 0.014877340017166027, 0.0012738338274504136, 0.0
 245, 0.01527221985994901, 0.0012738338274504136, 0.0
 246, 0.01565394232625917, 0.0012738338274504136, 0.0
 247, 0.016022945819217888, 0.0012738338274504136, 0.0
 248, 0.01637965413437663, 0.0012738338274504136, 0.0
 249, 0.016724476946440418, 0.0012738338274504136, 0.0
 250, 0.01705781027977375, 0.0012738338274504136, 0.0
 262, 0.021057810279773766, 0.0012738338274504136, 0.0
 263, 0.021391143613107098, 0.0012738338274504136, 0.0
 264, 0.021735966425170887, 0.0012738338274504136, 0.0
 265, 0.022092674740329627, 0.0012738338274504136, 0.0
 266, 0.022461678233288346, 0.0012738338274504136, 0.0
 267, 0.022843400699598504, 0.0012738338274504136, 0.0
 268, 0.023238280542381487, 0.0012738338274504136, 0.0
 269, 0.023646771275828694, 0.0012738338274504136, 0.0
 270, 0.024069342046056492, 0.0012738338274504136, 0.0
 271, 0.024506478169914223, 0.0012738338274504136, 0.0
 272, 0.02495868169236409, 0.0012738338274504136, 0.0
 273, 0.02542647196307303, 0.0012738338274504136, 0.0
 274, 0.025910386232878845, 0.0012738338274504136, 0.0
 275, 0.026410980270815558, 0.0012738338274504136, 0.0
 276, 0.026928829002406673, 0.0012738338274504136, 0.0
 277, 0.027464527169959417, 0.0012738338274504136, 0.0
 278, 0.028018690015618287, 0.0012738338274504136, 0.0
 279, 0.02859195398796238, 0.0012738338274504136, 0.0
 280, 0.02918497747295802, 0.0012738338274504136, 0.0
 281, 0.02979844155010622, 0.0012738338274504136, 0.0
 282, 0.0304330507746533, 0.0012738338274504136, 0.0
 283, 0.031089533986763136, 0.0012738338274504136, 0.0
 284, 0.031768645148580285, 0.0012738338274504136, 0.0
 285, 0.03247116421014538, 0.0012738338274504136, 0.0
 286, 0.033197898005157246, 0.0012738338274504136, 0.0
 287, 0.033949681177610595, 0.0012738338274504136, 0.0
 288, 0.0347273771403734, 0.0012738338274504136, 0.0
 289, 0.035531879066804974, 0.0012738338274504136, 0.0
 290, 0.036364110916553595, 0.0012738338274504136, 0.0
 291, 0.0372250284967117, 0.0012738338274504136, 0.0
 292, 0.038115620559547515, 0.0012738338274504136, 0.0
 293, 0.0, 0.0016004208018239926, 0.0
 294, 0.0008905920628358133, 0.0016004208018239926, 0.0
 295, 0.0017515096429939181, 0.0016004208018239926, 0.0
 296, 0.002583741492742537, 0.0016004208018239926, 0.0
 297, 0.0033882434191741147, 0.0016004208018239926, 0.0
 298, 0.004165939381936917, 0.0016004208018239926, 0.0
 299, 0.004917722554390265, 0.0016004208018239926, 0.0
 300, 0.005644456349402134, 0.0016004208018239926, 0.0
 301, 0.006346975410967226, 0.0016004208018239926, 0.0
 302, 0.007026086572784376, 0.0016004208018239926, 0.0
 303, 0.007682569784894212, 0.0016004208018239926, 0.0
 304, 0.008317179009441292, 0.0016004208018239926, 0.0
 305, 0.008930643086589493, 0.0016004208018239926, 0.0
 306, 0.009523666571585137, 0.0016004208018239926, 0.0
 307, 0.010096930543929227, 0.0016004208018239926, 0.0
 308, 0.010651093389588097, 0.0016004208018239926, 0.0
 309, 0.01118679155714084, 0.0016004208018239926, 0.0
 310, 0.011704640288731954, 0.0016004208018239926, 0.0
 311, 0.012205234326668665, 0.0016004208018239926, 0.0
 312, 0.012689148596474482, 0.0016004208018239926, 0.0
 313, 0.013156938867183424, 0.0016004208018239926, 0.0
 314, 0.01360914238963329, 0.0016004208018239926, 0.0
 315, 0.014046278513491023, 0.0016004208018239926, 0.0
 316, 0.01446884928371882, 0.0016004208018239926, 0.0
 317, 0.014877340017166027, 0.0016004208018239926, 0.0
 318, 0.01527221985994901, 0.0016004208018239926, 0.0
 319, 0.01565394232625917, 0.0016004208018239926, 0.0
 320, 0.016022945819217888, 0.0016004208018239926, 0.0
 321, 0.01637965413437663, 0.0016004208018239926, 0.0
 322, 0.016724476946440418, 0.0016004208018239926, 0.0
 323, 0.01705781027977375, 0.0016004208018239926, 0.0
 335, 0.021057810279773766, 0.0016004208018239926, 0.0
 336, 0.021391143613107098, 0.0016004208018239926, 0.0
 337, 0.021735966425170887, 0.0016004208018239926, 0.0
 338, 0.022092674740329627, 0.0016004208018239926, 0.0
 339, 0.022461678233288346, 0.0016004208018239926, 0.0
 340, 0.022843400699598504, 0.0016004208018239926, 0.0
 341, 0.023238280542381487, 0.0016004208018239926, 0.0
 342, 0.023646771275828694, 0.0016004208018239926, 0.0
 343, 0.024069342046056492, 0.0016004208018239926, 0.0
 344, 0.024506478169914223, 0.0016004208018239926, 0.0
 345, 0.02495868169236409, 0.0016004208018239926, 0.0
 346, 0.02542647196307303, 0.0016004208018239926, 0.0
 347, 0.025910386232878845, 0.0016004208018239926, 0.0
 348, 0.026410980270815558, 0.0016004208018239926, 0.0
 349, 0.026928829002406673, 0.0016004208018239926, 0.0
 350, 0.027464527169959417, 0.0016004208018239926, 0.0
 351, 0.028018690015618287, 0.0016004208018239926, 0.0
 352, 0.02859195398796238, 0.0016004208018239926, 0.0
 353, 0.02918497747295802, 0.0016004208018239926, 0.0
 354, 0.02979844155010622, 0.0016004208018239926, 0.0
 355, 0.0304330507746533, 0.0016004208018239926, 0.0
 356, 0.031089533986763136, 0.0016004208018239926, 0.0
 357, 0.031768645148580285, 0.0016004208018239926, 0.0
 358, 0.03247116421014538, 0.0016004208018239926, 0.0
 359, 0.033197898005157246, 0.0016004208018239926, 0.0
 360, 0.033949681177610595, 0.0016004208018239926, 0.0
 361, 0.0347273771403734, 0.0016004208018239926, 0.0
 362, 0.035531879066804974, 0.0016004208018239926, 0.0
 363, 0.036364110916553595, 0.0016004208018239926, 0.0
 364, 0.0372250284967117, 0.0016004208018239926, 0.0
 365, 0.038115620559547515, 0.0016004208018239926, 0.0
 366, 0.0, 0.0018876283944707075, 0.0
 367, 0.0008905920628358133, 0.0018876283944707075, 0.0
 368, 0.0017515096429939181, 0.0018876283944707075, 0.0
 369, 0.002583741492742537, 0.0018876283944707075, 0.0
 370, 0.0033882434191741147, 0.0018876283944707075, 0.0
 371, 0.004165939381936917, 0.0018876283944707075, 0.0
 372, 0.004917722554390265, 0.0018876283944707075, 0.0
 373, 0.005644456349402134, 0.0018876283944707075, 0.0
 374, 0.006346975410967226, 0.0018876283944707075, 0.0
 375, 0.007026086572784376, 0.0018876283944707075, 0.0
 376, 0.007682569784894212, 0.0018876283944707075, 0.0
 377, 0.008317179009441292, 0.0018876283944707075, 0.0
 378, 0.008930643086589493, 0.0018876283944707075, 0.0
 379, 0.009523666571585137, 0.0018876283944707075, 0.0
 380, 0.010096930543929227, 0.0018876283944707075, 0.0
 381, 0.010651093389588097, 0.0018876283944707075, 0.0
 382, 0.01118679155714084, 0.0018876283944707075, 0.0
 383, 0.011704640288731954, 0.0018876283944707075, 0.0
 384, 0.012205234326668665, 0.0018876283944707075, 0.0
 385, 0.012689148596474482, 0.0018876283944707075, 0.0
 386, 0.013156938867183424, 0.0018876283944707075, 0.0
 387, 0.01360914238963329, 0.0018876283944707075, 0.0
 388, 0.014046278513491023, 0.0018876283944707075, 0.0
 389, 0.01446884928371882, 0.0018876283944707075, 0.0
 390, 0.014877340017166027, 0.0018876283944707075, 0.0
 391, 0.01527221985994901, 0.0018876283944707075, 0.0
 392, 0.01565394232625917, 0.0018876283944707075, 0.0
 393, 0.016022945819217888, 0.0018876283944707075, 0.0
 394, 0.01637965413437663, 0.0018876283944707075, 0.0
 395, 0.016724476946440418, 0.0018876283944707075, 0.0
 396, 0.01705781027977375, 0.0018876283944707075, 0.0
 408, 0.021057810279773766, 0.0018876283944707075, 0.0
 409, 0.021391143613107098, 0.0018876283944707075, 0.0
 410, 0.021735966425170887, 0.0018876283944707075, 0.0
 411, 0.022092674740329627, 0.0018876283944707075, 0.0
 412, 0.022461678233288346, 0.0018876283944707075, 0.0
 413, 0.022843400699598504, 0.0018876283944707075, 0.0
 414, 0.023238280542381487, 0.0018876283944707075, 0.0
 415, 0.023646771275828694, 0.0018876283944707075, 0.0
 416, 0.024069342046056492, 0.0018876283944707075, 0.0
 417, 0.024506478169914223, 0.0018876283944707075, 0.0
 418, 0.02495868169236409, 0.0018876283944707075, 0.0
 419, 0.02542647196307303, 0.0018876283944707075, 0.0
 420, 0.025910386232878845, 0.0018876283944707075, 0.0
 421, 0.026410980270815558, 0.0018876283944707075, 0.0
 422, 0.026928829002406673, 0.0018876283944707075, 0.0
 423, 0.027464527169959417, 0.0018876283944707075, 0.0
 424, 0.028018690015618287, 0.0018876283944707075, 0.0
 425, 0.02859195398796238, 0.0018876283944707075, 0.0
 426, 0.02918497747295802, 0.0018876283944707075, 0.0
 427, 0.02979844155010622, 0.0018876283944707075, 0.0
 428, 0.0304330507746533, 0.0018876283944707075, 0.0
 429, 0.031089533986763136, 0.0018876283944707075, 0.0
 430, 0.031768645148580285, 0.0018876283944707075, 0.0
 431, 0.03247116421014538, 0.0018876283944707075, 0.0
 432, 0.033197898005157246, 0.0018876283944707075, 0.0
 433, 0.033949681177610595, 0.0018876283944707075, 0.0
 434, 0.0347273771403734, 0.0018876283944707075, 0.0
 435, 0.035531879066804974, 0.0018876283944707075, 0.0
 436, 0.036364110916553595, 0.0018876283944707075, 0.0
 437, 0.0372250284967117, 0.0018876283944707075, 0.0
 438, 0.038115620559547515, 0.0018876283944707075, 0.0
 439, 0.0, 0.0021402049138868314, 0.0
 440, 0.0008905920628358133, 0.0021402049138868314, 0.0
 441, 0.0017515096429939181, 0.0021402049138868314, 0.0
 442, 0.002583741492742537, 0.0021402049138868314, 0.0
 443, 0.0033882434191741147, 0.0021402049138868314, 0.0
 444, 0.004165939381936917, 0.0021402049138868314, 0.0
 445, 0.004917722554390265, 0.0021402049138868314, 0.0
 446, 0.005644456349402134, 0.0021402049138868314, 0.0
 447, 0.006346975410967226, 0.0021402049138868314, 0.0
 448, 0.007026086572784376, 0.0021402049138868314, 0.0
 449, 0.007682569784894212, 0.0021402049138868314, 0.0
 450, 0.008317179009441292, 0.0021402049138868314, 0.0
 451, 0.008930643086589493, 0.0021402049138868314, 0.0
 452, 0.009523666571585137, 0.0021402049138868314, 0.0
 453, 0.010096930543929227, 0.0021402049138868314, 0.0
 454, 0.010651093389588097, 0.0021402049138868314, 0.0
 455, 0.01118679155714084, 0.0021402049138868314, 0.0
 456, 0.011704640288731954, 0.0021402049138868314, 0.0
 457, 0.012205234326668665, 0.0021402049138868314, 0.0
 458, 0.012689148596474482, 0.0021402049138868314, 0.0
 459, 0.013156938867183424, 0.0021402049138868314, 0.0
 460, 0.01360914238963329, 0.0021402049138868314, 0.0
 461, 0.014046278513491023, 0.0021402049138868314, 0.0
 462, 0.01446884928371882, 0.0021402049138868314, 0.0
 463, 0.014877340017166027, 0.0021402049138868314, 0.0
 464, 0.01527221985994901, 0.0021402049138868314, 0.0
 465, 0.01565394232625917, 0.0021402049138868314, 0.0
 466, 0.016022945819217888, 0.0021402049138868314, 0.0
 467, 0.01637965413437663, 0.0021402049138868314, 0.0
 468, 0.016724476946440418, 0.0021402049138868314, 0.0
 469, 0.01705781027977375, 0.0021402049138868314, 0.0
 481, 0.021057810279773766, 0.0021402049138868314, 0.0
 482, 0.021391143613107098, 0.0021402049138868314, 0.0
 483, 0.021735966425170887, 0.0021402049138868314, 0.0
 484, 0.022092674740329627, 0.0021402049138868314, 0.0
 485, 0.022461678233288346, 0.0021402049138868314, 0.0
 486, 0.022843400699598504, 0.0021402049138868314, 0.0
 487, 0.023238280542381487, 0.0021402049138868314, 0.0
 488, 0.023646771275828694, 0.0021402049138868314, 0.0
 489, 0.024069342046056492, 0.0021402049138868314, 0.0
 490, 0.024506478169914223, 0.0021402049138868314, 0.0
 491, 0.02495868169236409, 0.0021402049138868314, 0.0
 492, 0.02542647196307303, 0.0021402049138868314, 0.0
 493, 0.025910386232878845, 0.0021402049138868314, 0.0
 494, 0.026410980270815558, 0.0021402049138868314, 0.0
 495, 0.026928829002406673, 0.0021402049138868314, 0.0
 496, 0.027464527169959417, 0.0021402049138868314, 0.0
 497, 0.028018690015618287, 0.0021402049138868314, 0.0
 498, 0.02859195398796238, 0.0021402049138868314, 0.0
 499, 0.02918497747295802, 0.0021402049138868314, 0.0
 500, 0.02979844155010622, 0.0021402049138868314, 0.0
 501, 0.0304330507746533, 0.0021402049138868314, 0.0
 502, 0.031089533986763136, 0.0021402049138868314, 0.0
 503, 0.031768645148580285, 0.0021402049138868314, 0.0
 504, 0.03247116421014538, 0.0021402049138868314, 0.0
 505, 0.033197898005157246, 0.0021402049138868314, 0.0
 506, 0.033949681177610595, 0.0021402049138868314, 0.0
 507, 0.0347273771403734, 0.0021402049138868314, 0.0
 508, 0.035531879066804974, 0.0021402049138868314, 0.0
 509, 0.036364110916553595, 0.0021402049138868314, 0.0
 510, 0.0372250284967117, 0.0021402049138868314, 0.0
 511, 0.038115620559547515, 0.0021402049138868314, 0.0
 512, 0.0, 0.0023623261244456193, 0.0
 513, 0.0008905920628358133, 0.0023623261244456193, 0.0
 514, 0.0017515096429939181, 0.0023623261244456193, 0.0
 515, 0.002583741492742537, 0.0023623261244456193, 0.0
 516, 0.0033882434191741147, 0.0023623261244456193, 0.0
 517, 0.004165939381936917, 0.0023623261244456193, 0.0
 518, 0.004917722554390265, 0.0023623261244456193, 0.0
 519, 0.005644456349402134, 0.0023623261244456193, 0.0
 520, 0.006346975410967226, 0.0023623261244456193, 0.0
 521, 0.007026086572784376, 0.0023623261244456193, 0.0
 522, 0.007682569784894212, 0.0023623261244456193, 0.0
 523, 0.008317179009441292, 0.0023623261244456193, 0.0
 524, 0.008930643086589493, 0.0023623261244456193, 0.0
 525, 0.009523666571585137, 0.0023623261244456193, 0.0
 526, 0.010096930543929227, 0.0023623261244456193, 0.0
 527, 0.010651093389588097, 0.0023623261244456193, 0.0
 528, 0.01118679155714084, 0.0023623261244456193, 0.0
 529, 0.011704640288731954, 0.0023623261244456193, 0.0
 530, 0.012205234326668665, 0.0023623261244456193, 0.0
 531, 0.012689148596474482, 0.0023623261244456193, 0.0
 532, 0.013156938867183424, 0.0023623261244456193, 0.0
 533, 0.01360914238963329, 0.0023623261244456193, 0.0
 534, 0.014046278513491023, 0.0023623261244456193, 0.0
 535, 0.01446884928371882, 0.0023623261244456193, 0.0
 536, 0.014877340017166027, 0.0023623261244456193, 0.0
 537, 0.01527221985994901, 0.0023623261244456193, 0.0
 538, 0.01565394232625917, 0.0023623261244456193, 0.0
 539, 0.016022945819217888, 0.0023623261244456193, 0.0
 540, 0.01637965413437663, 0.0023623261244456193, 0.0
 541, 0.016724476946440418, 0.0023623261244456193, 0.0
 542, 0.01705781027977375, 0.0023623261244456193, 0.0
 554, 0.021057810279773766, 0.0023623261244456193, 0.0
 555, 0.021391143613107098, 0.0023623261244456193, 0.0
 556, 0.021735966425170887, 0.0023623261244456193, 0.0
 557, 0.022092674740329627, 0.0023623261244456193, 0.0
 558, 0.022461678233288346, 0.0023623261244456193, 0.0
 559, 0.022843400699598504, 0.0023623261244456193, 0.0
 560, 0.023238280542381487, 0.0023623261244456193, 0.0
 561, 0.023646771275828694, 0.0023623261244456193, 0.0
 562, 0.024069342046056492, 0.0023623261244456193, 0.0
 563, 0.024506478169914223, 0.0023623261244456193, 0.0
 564, 0.02495868169236409, 0.0023623261244456193, 0.0
 565, 0.02542647196307303, 0.0023623261244456193, 0.0
 566, 0.025910386232878845, 0.0023623261244456193, 0.0
 567, 0.026410980270815558, 0.0023623261244456193, 0.0
 568, 0.026928829002406673, 0.0023623261244456193, 0.0
 569, 0.027464527169959417, 0.0023623261244456193, 0.0
 570, 0.028018690015618287, 0.0023623261244456193, 0.0
 571, 0.02859195398796238, 0.0023623261244456193, 0.0
 572, 0.02918497747295802, 0.0023623261244456193, 0.0
 573, 0.02979844155010622, 0.0023623261244456193, 0.0
 574, 0.0304330507746533, 0.0023623261244456193, 0.0
 575, 0.031089533986763136, 0.0023623261244456193, 0.0
 576, 0.031768645148580285, 0.0023623261244456193, 0.0
 577, 0.03247116421014538, 0.0023623261244456193, 0.0
 578, 0.033197898005157246, 0.0023623261244456193, 0.0
 579, 0.033949681177610595, 0.0023623261244456193, 0.0
 580, 0.0347273771403734, 0.0023623261244456193, 0.0
 581, 0.035531879066804974, 0.0023623261244456193, 0.0
 582, 0.036364110916553595, 0.0023623261244456193, 0.0
 583, 0.0372250284967117, 0.0023623261244456193, 0.0
 584, 0.038115620559547515, 0.0023623261244456193, 0.0
 585, 0.0, 0.002557664282933806, 0.0
 586, 0.0008905920628358133, 0.002557664282933806, 0.0
 587, 0.0017515096429939181, 0.002557664282933806, 0.0
 588, 0.002583741492742537, 0.002557664282933806, 0.0
 589, 0.0033882434191741147, 0.002557664282933806, 0.0
 590, 0.004165939381936917, 0.002557664282933806, 0.0
 591, 0.004917722554390265, 0.002557664282933806, 0.0
 592, 0.005644456349402134, 0.002557664282933806, 0.0
 593, 0.006346975410967226, 0.002557664282933806, 0.0
 594, 0.007026086572784376, 0.002557664282933806, 0.0
 595, 0.007682569784894212, 0.002557664282933806, 0.0
 596, 0.008317179009441292, 0.002557664282933806, 0.0
 597, 0.008930643086589493, 0.002557664282933806, 0.0
 598, 0.009523666571585137, 0.002557664282933806, 0.0
 599, 0.010096930543929227, 0.002557664282933806, 0.0
 600, 0.010651093389588097, 0.002557664282933806, 0.0
 601, 0.01118679155714084, 0.002557664282933806, 0.0
 602, 0.011704640288731954, 0.002557664282933806, 0.0
 603, 0.012205234326668665, 0.002557664282933806, 0.0
 604, 0.012689148596474482, 0.002557664282933806, 0.0
 605, 0.013156938867183424, 0.002557664282933806, 0.0
 606, 0.01360914238963329, 0.002557664282933806, 0.0
 607, 0.014046278513491023, 0.002557664282933806, 0.0
 608, 0.01446884928371882, 0.002557664282933806, 0.0
 609, 0.014877340017166027, 0.002557664282933806, 0.0
 610, 0.01527221985994901, 0.002557664282933806, 0.0
 611, 0.01565394232625917, 0.002557664282933806, 0.0
 612, 0.016022945819217888, 0.002557664282933806, 0.0
 613, 0.01637965413437663, 0.002557664282933806, 0.0
 614, 0.016724476946440418, 0.002557664282933806, 0.0
 615, 0.01705781027977375, 0.002557664282933806, 0.0
 627, 0.021057810279773766, 0.002557664282933806, 0.0
 628, 0.021391143613107098, 0.002557664282933806, 0.0
 629, 0.021735966425170887, 0.002557664282933806, 0.0
 630, 0.022092674740329627, 0.002557664282933806, 0.0
 631, 0.022461678233288346, 0.002557664282933806, 0.0
 632, 0.022843400699598504, 0.002557664282933806, 0.0
 633, 0.023238280542381487, 0.002557664282933806, 0.0
 634, 0.023646771275828694, 0.002557664282933806, 0.0
 635, 0.024069342046056492, 0.002557664282933806, 0.0
 636, 0.024506478169914223, 0.002557664282933806, 0.0
 637, 0.02495868169236409, 0.002557664282933806, 0.0
 638, 0.02542647196307303, 0.002557664282933806, 0.0
 639, 0.025910386232878845, 0.002557664282933806, 0.0
 640, 0.026410980270815558, 0.002557664282933806, 0.0
 641, 0.026928829002406673, 0.002557664282933806, 0.0
 642, 0.027464527169959417, 0.002557664282933806, 0.0
 643, 0.028018690015618287, 0.002557664282933806, 0.0
 644, 0.02859195398796238, 0.002557664282933806, 0.0
 645, 0.02918497747295802, 0.002557664282933806, 0.0
 646, 0.02979844155010622, 0.002557664282933806, 0.0
 647, 0.0304330507746533, 0.002557664282933806, 0.0
 648, 0.031089533986763136, 0.002557664282933806, 0.0
 649, 0.031768645148580285, 0.002557664282933806, 0.0
 650, 0.03247116421014538, 0.002557664282933806, 0.0
 651, 0.033197898005157246, 0.002557664282933806, 0.0
 652, 0.033949681177610595, 0.002557664282933806, 0.0
 653, 0.0347273771403734, 0.002557664282933806, 0.0
 654, 0.035531879066804974, 0.002557664282933806, 0.0
 655, 0.036364110916553595, 0.002557664282933806, 0.0
 656, 0.0372250284967117, 0.002557664282933806, 0.0
 657, 0.038115620559547515, 0.002557664282933806, 0.0
 658, 0.0, 0.002729448850763078, 0.0
 659, 0.0008905920628358133, 0.002729448850763078, 0.0
 660, 0.0017515096429939181, 0.002729448850763078, 0.0
 661, 0.002583741492742537, 0.002729448850763078, 0.0
 662, 0.0033882434191741147, 0.002729448850763078, 0.0
 663, 0.004165939381936917, 0.002729448850763078, 0.0
 664, 0.004917722554390265, 0.002729448850763078, 0.0
 665, 0.005644456349402134, 0.002729448850763078, 0.0
 666, 0.006346975410967226, 0.002729448850763078, 0.0
 667, 0.007026086572784376, 0.002729448850763078, 0.0
 668, 0.007682569784894212, 0.002729448850763078, 0.0
 669, 0.008317179009441292, 0.002729448850763078, 0.0
 670, 0.008930643086589493, 0.002729448850763078, 0.0
 671, 0.009523666571585137, 0.002729448850763078, 0.0
 672, 0.010096930543929227, 0.002729448850763078, 0.0
 673, 0.010651093389588097, 0.002729448850763078, 0.0
 674, 0.01118679155714084, 0.002729448850763078, 0.0
 675, 0.011704640288731954, 0.002729448850763078, 0.0
 676, 0.012205234326668665, 0.002729448850763078, 0.0
 677, 0.012689148596474482, 0.002729448850763078, 0.0
 678, 0.013156938867183424, 0.002729448850763078, 0.0
 679, 0.01360914238963329, 0.002729448850763078, 0.0
 680, 0.014046278513491023, 0.002729448850763078, 0.0
 681, 0.01446884928371882, 0.002729448850763078, 0.0
 682, 0.014877340017166027, 0.002729448850763078, 0.0
 683, 0.01527221985994901, 0.002729448850763078, 0.0
 684, 0.01565394232625917, 0.002729448850763078, 0.0
 685, 0.016022945819217888, 0.002729448850763078, 0.0
 686, 0.01637965413437663, 0.002729448850763078, 0.0
 687, 0.016724476946440418, 0.002729448850763078, 0.0
 688, 0.01705781027977375, 0.002729448850763078, 0.0
 700, 0.021057810279773766, 0.002729448850763078, 0.0
 701, 0.021391143613107098, 0.002729448850763078, 0.0
 702, 0.021735966425170887, 0.002729448850763078, 0.0
 703, 0.022092674740329627, 0.002729448850763078, 0.0
 704, 0.022461678233288346, 0.002729448850763078, 0.0
 705, 0.022843400699598504, 0.002729448850763078, 0.0
 706, 0.023238280542381487, 0.002729448850763078, 0.0
 707, 0.023646771275828694, 0.002729448850763078, 0.0
 708, 0.024069342046056492, 0.002729448850763078, 0.0
 709, 0.024506478169914223, 0.002729448850763078, 0.0
 710, 0.02495868169236409, 0.002729448850763078, 0.0
 711, 0.02542647196307303, 0.002729448850763078, 0.0
 712, 0.025910386232878845, 0.002729448850763078, 0.0
 713, 0.026410980270815558, 0.002729448850763078, 0.0
 714, 0.026928829002406673, 0.002729448850763078, 0.0
 715, 0.027464527169959417, 0.002729448850763078, 0.0
 716, 0.028018690015618287, 0.002729448850763078, 0.0
 717, 0.02859195398796238, 0.002729448850763078, 0.0
 718, 0.02918497747295802, 0.002729448850763078, 0.0
 719, 0.02979844155010622, 0.002729448850763078, 0.0
 720, 0.0304330507746533, 0.002729448850763078, 0.0
 721, 0.031089533986763136, 0.002729448850763078, 0.0
 722, 0.031768645148580285, 0.002729448850763078, 0.0
 723, 0.03247116421014538, 0.002729448850763078, 0.0
 724, 0.033197898005157246, 0.002729448850763078, 0.0
 725, 0.033949681177610595, 0.002729448850763078, 0.0
 726, 0.0347273771403734, 0.002729448850763078, 0.0
 727, 0.035531879066804974, 0.002729448850763078, 0.0
 728, 0.036364110916553595, 0.002729448850763078, 0.0
 729, 0.0372250284967117, 0.002729448850763078, 0.0
 730, 0.038115620559547515, 0.002729448850763078, 0.0
 731, 0.0, 0.0028805198855915044, 0.0
 732, 0.0008905920628358133, 0.0028805198855915044, 0.0
 733, 0.0017515096429939181, 0.0028805198855915044, 0.0
 734, 0.002583741492742537, 0.0028805198855915044, 0.0
 735, 0.0033882434191741147, 0.0028805198855915044, 0.0
 736, 0.004165939381936917, 0.0028805198855915044, 0.0
 737, 0.004917722554390265, 0.0028805198855915044, 0.0
 738, 0.005644456349402134, 0.0028805198855915044, 0.0
 739, 0.006346975410967226, 0.0028805198855915044, 0.0
 740, 0.007026086572784376, 0.0028805198855915044, 0.0
 741, 0.007682569784894212, 0.0028805198855915044, 0.0
 742, 0.008317179009441292, 0.0028805198855915044, 0.0
 743, 0.008930643086589493, 0.0028805198855915044, 0.0
 744, 0.009523666571585137, 0.0028805198855915044, 0.0
 745, 0.010096930543929227, 0.0028805198855915044, 0.0
 746, 0.010651093389588097, 0.0028805198855915044, 0.0
 747, 0.01118679155714084, 0.0028805198855915044, 0.0
 748, 0.011704640288731954, 0.0028805198855915044, 0.0
 749, 0.012205234326668665, 0.0028805198855915044, 0.0
 750, 0.012689148596474482, 0.0028805198855915044, 0.0
 751, 0.013156938867183424, 0.0028805198855915044, 0.0
 752, 0.01360914238963329, 0.0028805198855915044, 0.0
 753, 0.014046278513491023, 0.0028805198855915044, 0.0
 754, 0.01446884928371882, 0.0028805198855915044, 0.0
 755, 0.014877340017166027, 0.0028805198855915044, 0.0
 756, 0.01527221985994901, 0.0028805198855915044, 0.0
 757, 0.01565394232625917, 0.0028805198855915044, 0.0
 758, 0.016022945819217888, 0.0028805198855915044, 0.0
 759, 0.01637965413437663, 0.0028805198855915044, 0.0
 760, 0.016724476946440418, 0.0028805198855915044, 0.0
 761, 0.01705781027977375, 0.0028805198855915044, 0.0
 773, 0.021057810279773766, 0.0028805198855915044, 0.0
 774, 0.021391143613107098, 0.0028805198855915044, 0.0
 775, 0.021735966425170887, 0.0028805198855915044, 0.0
 776, 0.022092674740329627, 0.0028805198855915044, 0.0
 777, 0.022461678233288346, 0.0028805198855915044, 0.0
 778, 0.022843400699598504, 0.0028805198855915044, 0.0
 779, 0.023238280542381487, 0.0028805198855915044, 0.0
 780, 0.023646771275828694, 0.0028805198855915044, 0.0
 781, 0.024069342046056492, 0.0028805198855915044, 0.0
 782, 0.024506478169914223, 0.0028805198855915044, 0.0
 783, 0.02495868169236409, 0.0028805198855915044, 0.0
 784, 0.02542647196307303, 0.0028805198855915044, 0.0
 785, 0.025910386232878845, 0.0028805198855915044, 0.0
 786, 0.026410980270815558, 0.0028805198855915044, 0.0
 787, 0.026928829002406673, 0.0028805198855915044, 0.0
 788, 0.027464527169959417, 0.0028805198855915044, 0.0
 789, 0.028018690015618287, 0.0028805198855915044, 0.0
 790, 0.02859195398796238, 0.0028805198855915044, 0.0
 791, 0.02918497747295802, 0.0028805198855915044, 0.0
 792, 0.02979844155010622, 0.0028805198855915044, 0.0
 793, 0.0304330507746533, 0.0028805198855915044, 0.0
 794, 0.031089533986763136, 0.0028805198855915044, 0.0
 795, 0.031768645148580285, 0.0028805198855915044, 0.0
 796, 0.03247116421014538, 0.0028805198855915044, 0.0
 797, 0.033197898005157246, 0.0028805198855915044, 0.0
 798, 0.033949681177610595, 0.0028805198855915044, 0.0
 799, 0.0347273771403734, 0.0028805198855915044, 0.0
 800, 0.035531879066804974, 0.0028805198855915044, 0.0
 801, 0.036364110916553595, 0.0028805198855915044, 0.0
 802, 0.0372250284967117, 0.0028805198855915044, 0.0
 803, 0.038115620559547515, 0.0028805198855915044, 0.0
 804, 0.0, 0.0030133749950610224, 0.0
 805, 0.0008905920628358133, 0.0030133749950610224, 0.0
 806, 0.0017515096429939181, 0.0030133749950610224, 0.0
 807, 0.002583741492742537, 0.0030133749950610224, 0.0
 808, 0.0033882434191741147, 0.0030133749950610224, 0.0
 809, 0.004165939381936917, 0.0030133749950610224, 0.0
 810, 0.004917722554390265, 0.0030133749950610224, 0.0
 811, 0.005644456349402134, 0.0030133749950610224, 0.0
 812, 0.006346975410967226, 0.0030133749950610224, 0.0
 813, 0.007026086572784376, 0.0030133749950610224, 0.0
 814, 0.007682569784894212, 0.0030133749950610224, 0.0
 815, 0.008317179009441292, 0.0030133749950610224, 0.0
 816, 0.008930643086589493, 0.0030133749950610224, 0.0
 817, 0.009523666571585137, 0.0030133749950610224, 0.0
 818, 0.010096930543929227, 0.0030133749950610224, 0.0
 819, 0.010651093389588097, 0.0030133749950610224, 0.0
 820, 0.01118679155714084, 0.0030133749950610224, 0.0
 821, 0.011704640288731954, 0.0030133749950610224, 0.0
 822, 0.012205234326668665, 0.0030133749950610224, 0.0
 823, 0.012689148596474482, 0.0030133749950610224, 0.0
 824, 0.013156938867183424, 0.0030133749950610224, 0.0
 825, 0.01360914238963329, 0.0030133749950610224, 0.0
 826, 0.014046278513491023, 0.0030133749950610224, 0.0
 827, 0.01446884928371882, 0.0030133749950610224, 0.0
 828, 0.014877340017166027, 0.0030133749950610224, 0.0
 829, 0.01527221985994901, 0.0030133749950610224, 0.0
 830, 0.01565394232625917, 0.0030133749950610224, 0.0
 831, 0.016022945819217888, 0.0030133749950610224, 0.0
 832, 0.01637965413437663, 0.0030133749950610224, 0.0
 833, 0.016724476946440418, 0.0030133749950610224, 0.0
 834, 0.01705781027977375, 0.0030133749950610224, 0.0
 846, 0.021057810279773766, 0.0030133749950610224, 0.0
 847, 0.021391143613107098, 0.0030133749950610224, 0.0
 848, 0.021735966425170887, 0.0030133749950610224, 0.0
 849, 0.022092674740329627, 0.0030133749950610224, 0.0
 850, 0.022461678233288346, 0.0030133749950610224, 0.0
 851, 0.022843400699598504, 0.0030133749950610224, 0.0
 852, 0.023238280542381487, 0.0030133749950610224, 0.0
 853, 0.023646771275828694, 0.0030133749950610224, 0.0
 854, 0.024069342046056492, 0.0030133749950610224, 0.0
 855, 0.024506478169914223, 0.0030133749950610224, 0.0
 856, 0.02495868169236409, 0.0030133749950610224, 0.0
 857, 0.02542647196307303, 0.0030133749950610224, 0.0
 858, 0.025910386232878845, 0.0030133749950610224, 0.0
 859, 0.026410980270815558, 0.0030133749950610224, 0.0
 860, 0.026928829002406673, 0.0030133749950610224, 0.0
 861, 0.027464527169959417, 0.0030133749950610224, 0.0
 862, 0.028018690015618287, 0.0030133749950610224, 0.0
 863, 0.02859195398796238, 0.0030133749950610224, 0.0
 864, 0.02918497747295802, 0.0030133749950610224, 0.0
 865, 0.02979844155010622, 0.0030133749950610224, 0.0
 866, 0.0304330507746533, 0.0030133749950610224, 0.0
 867, 0.031089533986763136, 0.0030133749950610224, 0.0
 868, 0.031768645148580285, 0.0030133749950610224, 0.0
 869, 0.03247116421014538, 0.0030133749950610224, 0.0
 870, 0.033197898005157246, 0.0030133749950610224, 0.0
 871, 0.033949681177610595, 0.0030133749950610224, 0.0
 872, 0.0347273771403734, 0.0030133749950610224, 0.0
 873, 0.035531879066804974, 0.0030133749950610224, 0.0
 874, 0.036364110916553595, 0.0030133749950610224, 0.0
 875, 0.0372250284967117, 0.0030133749950610224, 0.0
 876, 0.038115620559547515, 0.0030133749950610224, 0.0
 877, 0.0, 0.0031302106289216327, 0.0
 878, 0.0008905920628358133, 0.0031302106289216327, 0.0
 879, 0.0017515096429939181, 0.0031302106289216327, 0.0
 880, 0.002583741492742537, 0.0031302106289216327, 0.0
 881, 0.0033882434191741147, 0.0031302106289216327, 0.0
 882, 0.004165939381936917, 0.0031302106289216327, 0.0
 883, 0.004917722554390265, 0.0031302106289216327, 0.0
 884, 0.005644456349402134, 0.0031302106289216327, 0.0
 885, 0.006346975410967226, 0.0031302106289216327, 0.0
 886, 0.007026086572784376, 0.0031302106289216327, 0.0
 887, 0.007682569784894212, 0.0031302106289216327, 0.0
 888, 0.008317179009441292, 0.0031302106289216327, 0.0
 889, 0.008930643086589493, 0.0031302106289216327, 0.0
 890, 0.009523666571585137, 0.0031302106289216327, 0.0
 891, 0.010096930543929227, 0.0031302106289216327, 0.0
 892, 0.010651093389588097, 0.0031302106289216327, 0.0
 893, 0.01118679155714084, 0.0031302106289216327, 0.0
 894, 0.011704640288731954, 0.0031302106289216327, 0.0
 895, 0.012205234326668665, 0.0031302106289216327, 0.0
 896, 0.012689148596474482, 0.0031302106289216327, 0.0
 897, 0.013156938867183424, 0.0031302106289216327, 0.0
 898, 0.01360914238963329, 0.0031302106289216327, 0.0
 899, 0.014046278513491023, 0.0031302106289216327, 0.0
 900, 0.01446884928371882, 0.0031302106289216327, 0.0
 901, 0.014877340017166027, 0.0031302106289216327, 0.0
 902, 0.01527221985994901, 0.0031302106289216327, 0.0
 903, 0.01565394232625917, 0.0031302106289216327, 0.0
 904, 0.016022945819217888, 0.0031302106289216327, 0.0
 905, 0.01637965413437663, 0.0031302106289216327, 0.0
 906, 0.016724476946440418, 0.0031302106289216327, 0.0
 907, 0.01705781027977375, 0.0031302106289216327, 0.0
 919, 0.021057810279773766, 0.0031302106289216327, 0.0
 920, 0.021391143613107098, 0.0031302106289216327, 0.0
 921, 0.021735966425170887, 0.0031302106289216327, 0.0
 922, 0.022092674740329627, 0.0031302106289216327, 0.0
 923, 0.022461678233288346, 0.0031302106289216327, 0.0
 924, 0.022843400699598504, 0.0031302106289216327, 0.0
 925, 0.023238280542381487, 0.0031302106289216327, 0.0
 926, 0.023646771275828694, 0.0031302106289216327, 0.0
 927, 0.024069342046056492, 0.0031302106289216327, 0.0
 928, 0.024506478169914223, 0.0031302106289216327, 0.0
 929, 0.02495868169236409, 0.0031302106289216327, 0.0
 930, 0.02542647196307303, 0.0031302106289216327, 0.0
 931, 0.025910386232878845, 0.0031302106289216327, 0.0
 932, 0.026410980270815558, 0.0031302106289216327, 0.0
 933, 0.026928829002406673, 0.0031302106289216327, 0.0
 934, 0.027464527169959417, 0.0031302106289216327, 0.0
 935, 0.028018690015618287, 0.0031302106289216327, 0.0
 936, 0.02859195398796238, 0.0031302106289216327, 0.0
 937, 0.02918497747295802, 0.0031302106289216327, 0.0
 938, 0.02979844155010622, 0.0031302106289216327, 0.0
 939, 0.0304330507746533, 0.0031302106289216327, 0.0
 940, 0.031089533986763136, 0.0031302106289216327, 0.0
 941, 0.031768645148580285, 0.0031302106289216327, 0.0
 942, 0.03247116421014538, 0.0031302106289216327, 0.0
 943, 0.033197898005157246, 0.0031302106289216327, 0.0
 944, 0.033949681177610595, 0.0031302106289216327, 0.0
 945, 0.0347273771403734, 0.0031302106289216327, 0.0
 946, 0.035531879066804974, 0.0031302106289216327, 0.0
 947, 0.036364110916553595, 0.0031302106289216327, 0.0
 948, 0.0372250284967117, 0.0031302106289216327, 0.0
 949, 0.038115620559547515, 0.0031302106289216327, 0.0
 950, 0.0, 0.0032329583922114037, 0.0
 951, 0.0008905920628358133, 0.0032329583922114037, 0.0
 952, 0.0017515096429939181, 0.0032329583922114037, 0.0
 953, 0.002583741492742537, 0.0032329583922114037, 0.0
 954, 0.0033882434191741147, 0.0032329583922114037, 0.0
 955, 0.004165939381936917, 0.0032329583922114037, 0.0
 956, 0.004917722554390265, 0.0032329583922114037, 0.0
 957, 0.005644456349402134, 0.0032329583922114037, 0.0
 958, 0.006346975410967226, 0.0032329583922114037, 0.0
 959, 0.007026086572784376, 0.0032329583922114037, 0.0
 960, 0.007682569784894212, 0.0032329583922114037, 0.0
 961, 0.008317179009441292, 0.0032329583922114037, 0.0
 962, 0.008930643086589493, 0.0032329583922114037, 0.0
 963, 0.009523666571585137, 0.0032329583922114037, 0.0
 964, 0.010096930543929227, 0.0032329583922114037, 0.0
 965, 0.010651093389588097, 0.0032329583922114037, 0.0
 966, 0.01118679155714084, 0.0032329583922114037, 0.0
 967, 0.011704640288731954, 0.0032329583922114037, 0.0
 968, 0.012205234326668665, 0.0032329583922114037, 0.0
 969, 0.012689148596474482, 0.0032329583922114037, 0.0
 970, 0.013156938867183424, 0.0032329583922114037, 0.0
 971, 0.01360914238963329, 0.0032329583922114037, 0.0
 972, 0.014046278513491023, 0.0032329583922114037, 0.0
 973, 0.01446884928371882, 0.0032329583922114037, 0.0
 974, 0.014877340017166027, 0.0032329583922114037, 0.0
 975, 0.01527221985994901, 0.0032329583922114037, 0.0
 976, 0.01565394232625917, 0.0032329583922114037, 0.0
 977, 0.016022945819217888, 0.0032329583922114037, 0.0
 978, 0.01637965413437663, 0.0032329583922114037, 0.0
 979, 0.016724476946440418, 0.0032329583922114037, 0.0
 980, 0.01705781027977375, 0.0032329583922114037, 0.0
 992, 0.021057810279773766, 0.0032329583922114037, 0.0
 993, 0.021391143613107098, 0.0032329583922114037, 0.0
 994, 0.021735966425170887, 0.0032329583922114037, 0.0
 995, 0.022092674740329627, 0.0032329583922114037, 0.0
 996, 0.022461678233288346, 0.0032329583922114037, 0.0
 997, 0.022843400699598504, 0.0032329583922114037, 0.0
 998, 0.023238280542381487, 0.0032329583922114037, 0.0
 999, 0.023646771275828694, 0.0032329583922114037, 0.0
 1000, 0.024069342046056492, 0.0032329583922114037, 0.0
 1001, 0.024506478169914223, 0.0032329583922114037, 0.0
 1002, 0.02495868169236409, 0.0032329583922114037, 0.0
 1003, 0.02542647196307303, 0.0032329583922114037, 0.0
 1004, 0.025910386232878845, 0.0032329583922114037, 0.0
 1005, 0.026410980270815558, 0.0032329583922114037, 0.0
 1006, 0.026928829002406673, 0.0032329583922114037, 0.0
 1007, 0.027464527169959417, 0.0032329583922114037, 0.0
 1008, 0.028018690015618287, 0.0032329583922114037, 0.0
 1009, 0.02859195398796238, 0.0032329583922114037, 0.0
 1010, 0.02918497747295802, 0.0032329583922114037, 0.0
 1011, 0.02979844155010622, 0.0032329583922114037, 0.0
 1012, 0.0304330507746533, 0.0032329583922114037, 0.0
 1013, 0.031089533986763136, 0.0032329583922114037, 0.0
 1014, 0.031768645148580285, 0.0032329583922114037, 0.0
 1015, 0.03247116421014538, 0.0032329583922114037, 0.0
 1016, 0.033197898005157246, 0.0032329583922114037, 0.0
 1017, 0.033949681177610595, 0.0032329583922114037, 0.0
 1018, 0.0347273771403734, 0.0032329583922114037, 0.0
 1019, 0.035531879066804974, 0.0032329583922114037, 0.0
 1020, 0.036364110916553595, 0.0032329583922114037, 0.0
 1021, 0.0372250284967117, 0.0032329583922114037, 0.0
 1022, 0.038115620559547515, 0.0032329583922114037, 0.0
 1023, 0.0, 0.0033233169798461133, 0.0
 1024, 0.0008905920628358133, 0.0033233169798461133, 0.0
 1025, 0.0017515096429939181, 0.0033233169798461133, 0.0
 1026, 0.002583741492742537, 0.0033233169798461133, 0.0
 1027, 0.0033882434191741147, 0.0033233169798461133, 0.0
 1028, 0.004165939381936917, 0.0033233169798461133, 0.0
 1029, 0.004917722554390265, 0.0033233169798461133, 0.0
 1030, 0.005644456349402134, 0.0033233169798461133, 0.0
 1031, 0.006346975410967226, 0.0033233169798461133, 0.0
 1032, 0.007026086572784376, 0.0033233169798461133, 0.0
 1033, 0.007682569784894212, 0.0033233169798461133, 0.0
 1034, 0.008317179009441292, 0.0033233169798461133, 0.0
 1035, 0.008930643086589493, 0.0033233169798461133, 0.0
 1036, 0.009523666571585137, 0.0033233169798461133, 0.0
 1037, 0.010096930543929227, 0.0033233169798461133, 0.0
 1038, 0.010651093389588097, 0.0033233169798461133, 0.0
 1039, 0.01118679155714084, 0.0033233169798461133, 0.0
 1040, 0.011704640288731954, 0.0033233169798461133, 0.0
 1041, 0.012205234326668665, 0.0033233169798461133, 0.0
 1042, 0.012689148596474482, 0.0033233169798461133, 0.0
 1043, 0.013156938867183424, 0.0033233169798461133, 0.0
 1044, 0.01360914238963329, 0.0033233169798461133, 0.0
 1045, 0.014046278513491023, 0.0033233169798461133, 0.0
 1046, 0.01446884928371882, 0.0033233169798461133, 0.0
 1047, 0.014877340017166027, 0.0033233169798461133, 0.0
 1048, 0.01527221985994901, 0.0033233169798461133, 0.0
 1049, 0.01565394232625917, 0.0033233169798461133, 0.0
 1050, 0.016022945819217888, 0.0033233169798461133, 0.0
 1051, 0.01637965413437663, 0.0033233169798461133, 0.0
 1052, 0.016724476946440418, 0.0033233169798461133, 0.0
 1053, 0.01705781027977375, 0.0033233169798461133, 0.0
 1065, 0.021057810279773766, 0.0033233169798461133, 0.0
 1066, 0.021391143613107098, 0.0033233169798461133, 0.0
 1067, 0.021735966425170887, 0.0033233169798461133, 0.0
 1068, 0.022092674740329627, 0.0033233169798461133, 0.0
 1069, 0.022461678233288346, 0.0033233169798461133, 0.0
 1070, 0.022843400699598504, 0.0033233169798461133, 0.0
 1071, 0.023238280542381487, 0.0033233169798461133, 0.0
 1072, 0.023646771275828694, 0.0033233169798461133, 0.0
 1073, 0.024069342046056492, 0.0033233169798461133, 0.0
 1074, 0.024506478169914223, 0.0033233169798461133, 0.0
 1075, 0.02495868169236409, 0.0033233169798461133, 0.0
 1076, 0.02542647196307303, 0.0033233169798461133, 0.0
 1077, 0.025910386232878845, 0.0033233169798461133, 0.0
 1078, 0.026410980270815558, 0.0033233169798461133, 0.0
 1079, 0.026928829002406673, 0.0033233169798461133, 0.0
 1080, 0.027464527169959417, 0.0033233169798461133, 0.0
 1081, 0.028018690015618287, 0.0033233169798461133, 0.0
 1082, 0.02859195398796238, 0.0033233169798461133, 0.0
 1083, 0.02918497747295802, 0.0033233169798461133, 0.0
 1084, 0.02979844155010622, 0.0033233169798461133, 0.0
 1085, 0.0304330507746533, 0.0033233169798461133, 0.0
 1086, 0.031089533986763136, 0.0033233169798461133, 0.0
 1087, 0.031768645148580285, 0.0033233169798461133, 0.0
 1088, 0.03247116421014538, 0.0033233169798461133, 0.0
 1089, 0.033197898005157246, 0.0033233169798461133, 0.0
 1090, 0.033949681177610595, 0.0033233169798461133, 0.0
 1091, 0.0347273771403734, 0.0033233169798461133, 0.0
 1092, 0.035531879066804974, 0.0033233169798461133, 0.0
 1093, 0.036364110916553595, 0.0033233169798461133, 0.0
 1094, 0.0372250284967117, 0.0033233169798461133, 0.0
 1095, 0.038115620559547515, 0.0033233169798461133, 0.0
 1096, 0.0, 0.0034027802605825835, 0.0
 1097, 0.0008905920628358133, 0.0034027802605825835, 0.0
 1098, 0.0017515096429939181, 0.0034027802605825835, 0.0
 1099, 0.002583741492742537, 0.0034027802605825835, 0.0
 1100, 0.0033882434191741147, 0.0034027802605825835, 0.0
 1101, 0.004165939381936917, 0.0034027802605825835, 0.0
 1102, 0.004917722554390265, 0.0034027802605825835, 0.0
 1103, 0.005644456349402134, 0.0034027802605825835, 0.0
 1104, 0.006346975410967226, 0.0034027802605825835, 0.0
 1105, 0.007026086572784376, 0.0034027802605825835, 0.0
 1106, 0.007682569784894212, 0.0034027802605825835, 0.0
 1107, 0.008317179009441292, 0.0034027802605825835, 0.0
 1108, 0.008930643086589493, 0.0034027802605825835, 0.0
 1109, 0.009523666571585137, 0.0034027802605825835, 0.0
 1110, 0.010096930543929227, 0.0034027802605825835, 0.0
 1111, 0.010651093389588097, 0.0034027802605825835, 0.0
 1112, 0.01118679155714084, 0.0034027802605825835, 0.0
 1113, 0.011704640288731954, 0.0034027802605825835, 0.0
 1114, 0.012205234326668665, 0.0034027802605825835, 0.0
 1115, 0.012689148596474482, 0.0034027802605825835, 0.0
 1116, 0.013156938867183424, 0.0034027802605825835, 0.0
 1117, 0.01360914238963329, 0.0034027802605825835, 0.0
 1118, 0.014046278513491023, 0.0034027802605825835, 0.0
 1119, 0.01446884928371882, 0.0034027802605825835, 0.0
 1120, 0.014877340017166027, 0.0034027802605825835, 0.0
 1121, 0.01527221985994901, 0.0034027802605825835, 0.0
 1122, 0.01565394232625917, 0.0034027802605825835, 0.0
 1123, 0.016022945819217888, 0.0034027802605825835, 0.0
 1124, 0.01637965413437663, 0.0034027802605825835, 0.0
 1125, 0.016724476946440418, 0.0034027802605825835, 0.0
 1126, 0.01705781027977375, 0.0034027802605825835, 0.0
 1138, 0.021057810279773766, 0.0034027802605825835, 0.0
 1139, 0.021391143613107098, 0.0034027802605825835, 0.0
 1140, 0.021735966425170887, 0.0034027802605825835, 0.0
 1141, 0.022092674740329627, 0.0034027802605825835, 0.0
 1142, 0.022461678233288346, 0.0034027802605825835, 0.0
 1143, 0.022843400699598504, 0.0034027802605825835, 0.0
 1144, 0.023238280542381487, 0.0034027802605825835, 0.0
 1145, 0.023646771275828694, 0.0034027802605825835, 0.0
 1146, 0.024069342046056492, 0.0034027802605825835, 0.0
 1147, 0.024506478169914223, 0.0034027802605825835, 0.0
 1148, 0.02495868169236409, 0.0034027802605825835, 0.0
 1149, 0.02542647196307303, 0.0034027802605825835, 0.0
 1150, 0.025910386232878845, 0.0034027802605825835, 0.0
 1151, 0.026410980270815558, 0.0034027802605825835, 0.0
 1152, 0.026928829002406673, 0.0034027802605825835, 0.0
 1153, 0.027464527169959417, 0.0034027802605825835, 0.0
 1154, 0.028018690015618287, 0.0034027802605825835, 0.0
 1155, 0.02859195398796238, 0.0034027802605825835, 0.0
 1156, 0.02918497747295802, 0.0034027802605825835, 0.0
 1157, 0.02979844155010622, 0.0034027802605825835, 0.0
 1158, 0.0304330507746533, 0.0034027802605825835, 0.0
 1159, 0.031089533986763136, 0.0034027802605825835, 0.0
 1160, 0.031768645148580285, 0.0034027802605825835, 0.0
 1161, 0.03247116421014538, 0.0034027802605825835, 0.0
 1162, 0.033197898005157246, 0.0034027802605825835, 0.0
 1163, 0.033949681177610595, 0.0034027802605825835, 0.0
 1164, 0.0347273771403734, 0.0034027802605825835, 0.0
 1165, 0.035531879066804974, 0.0034027802605825835, 0.0
 1166, 0.036364110916553595, 0.0034027802605825835, 0.0
 1167, 0.0372250284967117, 0.0034027802605825835, 0.0
 1168, 0.038115620559547515, 0.0034027802605825835, 0.0
 1169, 0.0, 0.0034726619746586183, 0.0
 1170, 0.0008905920628358133, 0.0034726619746586183, 0.0
 1171, 0.0017515096429939181, 0.0034726619746586183, 0.0
 1172, 0.002583741492742537, 0.0034726619746586183, 0.0
 1173, 0.0033882434191741147, 0.0034726619746586183, 0.0
 1174, 0.004165939381936917, 0.0034726619746586183, 0.0
 1175, 0.004917722554390265, 0.0034726619746586183, 0.0
 1176, 0.005644456349402134, 0.0034726619746586183, 0.0
 1177, 0.006346975410967226, 0.0034726619746586183, 0.0
 1178, 0.007026086572784376, 0.0034726619746586183, 0.0
 1179, 0.007682569784894212, 0.0034726619746586183, 0.0
 1180, 0.008317179009441292, 0.0034726619746586183, 0.0
 1181, 0.008930643086589493, 0.0034726619746586183, 0.0
 1182, 0.009523666571585137, 0.0034726619746586183, 0.0
 1183, 0.010096930543929227, 0.0034726619746586183, 0.0
 1184, 0.010651093389588097, 0.0034726619746586183, 0.0
 1185, 0.01118679155714084, 0.0034726619746586183, 0.0
 1186, 0.011704640288731954, 0.0034726619746586183, 0.0
 1187, 0.012205234326668665, 0.0034726619746586183, 0.0
 1188, 0.012689148596474482, 0.0034726619746586183, 0.0
 1189, 0.013156938867183424, 0.0034726619746586183, 0.0
 1190, 0.01360914238963329, 0.0034726619746586183, 0.0
 1191, 0.014046278513491023, 0.0034726619746586183, 0.0
 1192, 0.01446884928371882, 0.0034726619746586183, 0.0
 1193, 0.014877340017166027, 0.0034726619746586183, 0.0
 1194, 0.01527221985994901, 0.0034726619746586183, 0.0
 1195, 0.01565394232625917, 0.0034726619746586183, 0.0
 1196, 0.016022945819217888, 0.0034726619746586183, 0.0
 1197, 0.01637965413437663, 0.0034726619746586183, 0.0
 1198, 0.016724476946440418, 0.0034726619746586183, 0.0
 1199, 0.01705781027977375, 0.0034726619746586183, 0.0
 1211, 0.021057810279773766, 0.0034726619746586183, 0.0
 1212, 0.021391143613107098, 0.0034726619746586183, 0.0
 1213, 0.021735966425170887, 0.0034726619746586183, 0.0
 1214, 0.022092674740329627, 0.0034726619746586183, 0.0
 1215, 0.022461678233288346, 0.0034726619746586183, 0.0
 1216, 0.022843400699598504, 0.0034726619746586183, 0.0
 1217, 0.023238280542381487, 0.0034726619746586183, 0.0
 1218, 0.023646771275828694, 0.0034726619746586183, 0.0
 1219, 0.024069342046056492, 0.0034726619746586183, 0.0
 1220, 0.024506478169914223, 0.0034726619746586183, 0.0
 1221, 0.02495868169236409, 0.0034726619746586183, 0.0
 1222, 0.02542647196307303, 0.0034726619746586183, 0.0
 1223, 0.025910386232878845, 0.0034726619746586183, 0.0
 1224, 0.026410980270815558, 0.0034726619746586183, 0.0
 1225, 0.026928829002406673, 0.0034726619746586183, 0.0
 1226, 0.027464527169959417, 0.0034726619746586183, 0.0
 1227, 0.028018690015618287, 0.0034726619746586183, 0.0
 1228, 0.02859195398796238, 0.0034726619746586183, 0.0
 1229, 0.02918497747295802, 0.0034726619746586183, 0.0
 1230, 0.02979844155010622, 0.0034726619746586183, 0.0
 1231, 0.0304330507746533, 0.0034726619746586183, 0.0
 1232, 0.031089533986763136, 0.0034726619746586183, 0.0
 1233, 0.031768645148580285, 0.0034726619746586183, 0.0
 1234, 0.03247116421014538, 0.0034726619746586183, 0.0
 1235, 0.033197898005157246, 0.0034726619746586183, 0.0
 1236, 0.033949681177610595, 0.0034726619746586183, 0.0
 1237, 0.0347273771403734, 0.0034726619746586183, 0.0
 1238, 0.035531879066804974, 0.0034726619746586183, 0.0
 1239, 0.036364110916553595, 0.0034726619746586183, 0.0
 1240, 0.0372250284967117, 0.0034726619746586183, 0.0
 1241, 0.038115620559547515, 0.0034726619746586183, 0.0
 1242, 0.0, 0.0035341174534274855, 0.0
 1243, 0.0008905920628358133, 0.0035341174534274855, 0.0
 1244, 0.0017515096429939181, 0.0035341174534274855, 0.0
 1245, 0.002583741492742537, 0.0035341174534274855, 0.0
 1246, 0.0033882434191741147, 0.0035341174534274855, 0.0
 1247, 0.004165939381936917, 0.0035341174534274855, 0.0
 1248, 0.004917722554390265, 0.0035341174534274855, 0.0
 1249, 0.005644456349402134, 0.0035341174534274855, 0.0
 1250, 0.006346975410967226, 0.0035341174534274855, 0.0
 1251, 0.007026086572784376, 0.0035341174534274855, 0.0
 1252, 0.007682569784894212, 0.0035341174534274855, 0.0
 1253, 0.008317179009441292, 0.0035341174534274855, 0.0
 1254, 0.008930643086589493, 0.0035341174534274855, 0.0
 1255, 0.009523666571585137, 0.0035341174534274855, 0.0
 1256, 0.010096930543929227, 0.0035341174534274855, 0.0
 1257, 0.010651093389588097, 0.0035341174534274855, 0.0
 1258, 0.01118679155714084, 0.0035341174534274855, 0.0
 1259, 0.011704640288731954, 0.0035341174534274855, 0.0
 1260, 0.012205234326668665, 0.0035341174534274855, 0.0
 1261, 0.012689148596474482, 0.0035341174534274855, 0.0
 1262, 0.013156938867183424, 0.0035341174534274855, 0.0
 1263, 0.01360914238963329, 0.0035341174534274855, 0.0
 1264, 0.014046278513491023, 0.0035341174534274855, 0.0
 1265, 0.01446884928371882, 0.0035341174534274855, 0.0
 1266, 0.014877340017166027, 0.0035341174534274855, 0.0
 1267, 0.01527221985994901, 0.0035341174534274855, 0.0
 1268, 0.01565394232625917, 0.0035341174534274855, 0.0
 1269, 0.016022945819217888, 0.0035341174534274855, 0.0
 1270, 0.01637965413437663, 0.0035341174534274855, 0.0
 1271, 0.016724476946440418, 0.0035341174534274855, 0.0
 1272, 0.01705781027977375, 0.0035341174534274855, 0.0
 1284, 0.021057810279773766, 0.0035341174534274855, 0.0
 1285, 0.021391143613107098, 0.0035341174534274855, 0.0
 1286, 0.021735966425170887, 0.0035341174534274855, 0.0
 1287, 0.022092674740329627, 0.0035341174534274855, 0.0
 1288, 0.022461678233288346, 0.0035341174534274855, 0.0
 1289, 0.022843400699598504, 0.0035341174534274855, 0.0
 1290, 0.023238280542381487, 0.0035341174534274855, 0.0
 1291, 0.023646771275828694, 0.0035341174534274855, 0.0
 1292, 0.024069342046056492, 0.0035341174534274855, 0.0
 1293, 0.024506478169914223, 0.0035341174534274855, 0.0
 1294, 0.02495868169236409, 0.0035341174534274855, 0.0
 1295, 0.02542647196307303, 0.0035341174534274855, 0.0
 1296, 0.025910386232878845, 0.0035341174534274855, 0.0
 1297, 0.026410980270815558, 0.0035341174534274855, 0.0
 1298, 0.026928829002406673, 0.0035341174534274855, 0.0
 1299, 0.027464527169959417, 0.0035341174534274855, 0.0
 1300, 0.028018690015618287, 0.0035341174534274855, 0.0
 1301, 0.02859195398796238, 0.0035341174534274855, 0.0
 1302, 0.02918497747295802, 0.0035341174534274855, 0.0
 1303, 0.02979844155010622, 0.0035341174534274855, 0.0
 1304, 0.0304330507746533, 0.0035341174534274855, 0.0
 1305, 0.031089533986763136, 0.0035341174534274855, 0.0
 1306, 0.031768645148580285, 0.0035341174534274855, 0.0
 1307, 0.03247116421014538, 0.0035341174534274855, 0.0
 1308, 0.033197898005157246, 0.0035341174534274855, 0.0
 1309, 0.033949681177610595, 0.0035341174534274855, 0.0
 1310, 0.0347273771403734, 0.0035341174534274855, 0.0
 1311, 0.035531879066804974, 0.0035341174534274855, 0.0
 1312, 0.036364110916553595, 0.0035341174534274855, 0.0
 1313, 0.0372250284967117, 0.0035341174534274855, 0.0
 1314, 0.038115620559547515, 0.0035341174534274855, 0.0
 1315, 0.0, 0.0035881627200705065, 0.0
 1316, 0.0008905920628358133, 0.0035881627200705065, 0.0
 1317, 0.0017515096429939181, 0.0035881627200705065, 0.0
 1318, 0.002583741492742537, 0.0035881627200705065, 0.0
 1319, 0.0033882434191741147, 0.0035881627200705065, 0.0
 1320, 0.004165939381936917, 0.0035881627200705065, 0.0
 1321, 0.004917722554390265, 0.0035881627200705065, 0.0
 1322, 0.005644456349402134, 0.0035881627200705065, 0.0
 1323, 0.006346975410967226, 0.0035881627200705065, 0.0
 1324, 0.007026086572784376, 0.0035881627200705065, 0.0
 1325, 0.007682569784894212, 0.0035881627200705065, 0.0
 1326, 0.008317179009441292, 0.0035881627200705065, 0.0
 1327, 0.008930643086589493, 0.0035881627200705065, 0.0
 1328, 0.009523666571585137, 0.0035881627200705065, 0.0
 1329, 0.010096930543929227, 0.0035881627200705065, 0.0
 1330, 0.010651093389588097, 0.0035881627200705065, 0.0
 1331, 0.01118679155714084, 0.0035881627200705065, 0.0
 1332, 0.011704640288731954, 0.0035881627200705065, 0.0
 1333, 0.012205234326668665, 0.0035881627200705065, 0.0
 1334, 0.012689148596474482, 0.0035881627200705065, 0.0
 1335, 0.013156938867183424, 0.0035881627200705065, 0.0
 1336, 0.01360914238963329, 0.0035881627200705065, 0.0
 1337, 0.014046278513491023, 0.0035881627200705065, 0.0
 1338, 0.01446884928371882, 0.0035881627200705065, 0.0
 1339, 0.014877340017166027, 0.0035881627200705065, 0.0
 1340, 0.01527221985994901, 0.0035881627200705065, 0.0
 1341, 0.01565394232625917, 0.0035881627200705065, 0.0
 1342, 0.016022945819217888, 0.0035881627200705065, 0.0
 1343, 0.01637965413437663, 0.0035881627200705065, 0.0
 1344, 0.016724476946440418, 0.0035881627200705065, 0.0
 1345, 0.01705781027977375, 0.0035881627200705065, 0.0
 1357, 0.021057810279773766, 0.0035881627200705065, 0.0
 1358, 0.021391143613107098, 0.0035881627200705065, 0.0
 1359, 0.021735966425170887, 0.0035881627200705065, 0.0
 1360, 0.022092674740329627, 0.0035881627200705065, 0.0
 1361, 0.022461678233288346, 0.0035881627200705065, 0.0
 1362, 0.022843400699598504, 0.0035881627200705065, 0.0
 1363, 0.023238280542381487, 0.0035881627200705065, 0.0
 1364, 0.023646771275828694, 0.0035881627200705065, 0.0
 1365, 0.024069342046056492, 0.0035881627200705065, 0.0
 1366, 0.024506478169914223, 0.0035881627200705065, 0.0
 1367, 0.02495868169236409, 0.0035881627200705065, 0.0
 1368, 0.02542647196307303, 0.0035881627200705065, 0.0
 1369, 0.025910386232878845, 0.0035881627200705065, 0.0
 1370, 0.026410980270815558, 0.0035881627200705065, 0.0
 1371, 0.026928829002406673, 0.0035881627200705065, 0.0
 1372, 0.027464527169959417, 0.0035881627200705065, 0.0
 1373, 0.028018690015618287, 0.0035881627200705065, 0.0
 1374, 0.02859195398796238, 0.0035881627200705065, 0.0
 1375, 0.02918497747295802, 0.0035881627200705065, 0.0
 1376, 0.02979844155010622, 0.0035881627200705065, 0.0
 1377, 0.0304330507746533, 0.0035881627200705065, 0.0
 1378, 0.031089533986763136, 0.0035881627200705065, 0.0
 1379, 0.031768645148580285, 0.0035881627200705065, 0.0
 1380, 0.03247116421014538, 0.0035881627200705065, 0.0
 1381, 0.033197898005157246, 0.0035881627200705065, 0.0
 1382, 0.033949681177610595, 0.0035881627200705065, 0.0
 1383, 0.0347273771403734, 0.0035881627200705065, 0.0
 1384, 0.035531879066804974, 0.0035881627200705065, 0.0
 1385, 0.036364110916553595, 0.0035881627200705065, 0.0
 1386, 0.0372250284967117, 0.0035881627200705065, 0.0
 1387, 0.038115620559547515, 0.0035881627200705065, 0.0
 1388, 0.0, 0.003635691287173542, 0.0
 1389, 0.0008905920628358133, 0.003635691287173542, 0.0
 1390, 0.0017515096429939181, 0.003635691287173542, 0.0
 1391, 0.002583741492742537, 0.003635691287173542, 0.0
 1392, 0.0033882434191741147, 0.003635691287173542, 0.0
 1393, 0.004165939381936917, 0.003635691287173542, 0.0
 1394, 0.004917722554390265, 0.003635691287173542, 0.0
 1395, 0.005644456349402134, 0.003635691287173542, 0.0
 1396, 0.006346975410967226, 0.003635691287173542, 0.0
 1397, 0.007026086572784376, 0.003635691287173542, 0.0
 1398, 0.007682569784894212, 0.003635691287173542, 0.0
 1399, 0.008317179009441292, 0.003635691287173542, 0.0
 1400, 0.008930643086589493, 0.003635691287173542, 0.0
 1401, 0.009523666571585137, 0.003635691287173542, 0.0
 1402, 0.010096930543929227, 0.003635691287173542, 0.0
 1403, 0.010651093389588097, 0.003635691287173542, 0.0
 1404, 0.01118679155714084, 0.003635691287173542, 0.0
 1405, 0.011704640288731954, 0.003635691287173542, 0.0
 1406, 0.012205234326668665, 0.003635691287173542, 0.0
 1407, 0.012689148596474482, 0.003635691287173542, 0.0
 1408, 0.013156938867183424, 0.003635691287173542, 0.0
 1409, 0.01360914238963329, 0.003635691287173542, 0.0
 1410, 0.014046278513491023, 0.003635691287173542, 0.0
 1411, 0.01446884928371882, 0.003635691287173542, 0.0
 1412, 0.014877340017166027, 0.003635691287173542, 0.0
 1413, 0.01527221985994901, 0.003635691287173542, 0.0
 1414, 0.01565394232625917, 0.003635691287173542, 0.0
 1415, 0.016022945819217888, 0.003635691287173542, 0.0
 1416, 0.01637965413437663, 0.003635691287173542, 0.0
 1417, 0.016724476946440418, 0.003635691287173542, 0.0
 1418, 0.01705781027977375, 0.003635691287173542, 0.0
 1430, 0.021057810279773766, 0.003635691287173542, 0.0
 1431, 0.021391143613107098, 0.003635691287173542, 0.0
 1432, 0.021735966425170887, 0.003635691287173542, 0.0
 1433, 0.022092674740329627, 0.003635691287173542, 0.0
 1434, 0.022461678233288346, 0.003635691287173542, 0.0
 1435, 0.022843400699598504, 0.003635691287173542, 0.0
 1436, 0.023238280542381487, 0.003635691287173542, 0.0
 1437, 0.023646771275828694, 0.003635691287173542, 0.0
 1438, 0.024069342046056492, 0.003635691287173542, 0.0
 1439, 0.024506478169914223, 0.003635691287173542, 0.0
 1440, 0.02495868169236409, 0.003635691287173542, 0.0
 1441, 0.02542647196307303, 0.003635691287173542, 0.0
 1442, 0.025910386232878845, 0.003635691287173542, 0.0
 1443, 0.026410980270815558, 0.003635691287173542, 0.0
 1444, 0.026928829002406673, 0.003635691287173542, 0.0
 1445, 0.027464527169959417, 0.003635691287173542, 0.0
 1446, 0.028018690015618287, 0.003635691287173542, 0.0
 1447, 0.02859195398796238, 0.003635691287173542, 0.0
 1448, 0.02918497747295802, 0.003635691287173542, 0.0
 1449, 0.02979844155010622, 0.003635691287173542, 0.0
 1450, 0.0304330507746533, 0.003635691287173542, 0.0
 1451, 0.031089533986763136, 0.003635691287173542, 0.0
 1452, 0.031768645148580285, 0.003635691287173542, 0.0
 1453, 0.03247116421014538, 0.003635691287173542, 0.0
 1454, 0.033197898005157246, 0.003635691287173542, 0.0
 1455, 0.033949681177610595, 0.003635691287173542, 0.0
 1456, 0.0347273771403734, 0.003635691287173542, 0.0
 1457, 0.035531879066804974, 0.003635691287173542, 0.0
 1458, 0.036364110916553595, 0.003635691287173542, 0.0
 1459, 0.0372250284967117, 0.003635691287173542, 0.0
 1460, 0.038115620559547515, 0.003635691287173542, 0.0
 1461, 0.0, 0.003677488928876165, 0.0
 1462, 0.0008905920628358133, 0.003677488928876165, 0.0
 1463, 0.0017515096429939181, 0.003677488928876165, 0.0
 1464, 0.002583741492742537, 0.003677488928876165, 0.0
 1465, 0.0033882434191741147, 0.003677488928876165, 0.0
 1466, 0.004165939381936917, 0.003677488928876165, 0.0
 1467, 0.004917722554390265, 0.003677488928876165, 0.0
 1468, 0.005644456349402134, 0.003677488928876165, 0.0
 1469, 0.006346975410967226, 0.003677488928876165, 0.0
 1470, 0.007026086572784376, 0.003677488928876165, 0.0
 1471, 0.007682569784894212, 0.003677488928876165, 0.0
 1472, 0.008317179009441292, 0.003677488928876165, 0.0
 1473, 0.008930643086589493, 0.003677488928876165, 0.0
 1474, 0.009523666571585137, 0.003677488928876165, 0.0
 1475, 0.010096930543929227, 0.003677488928876165, 0.0
 1476, 0.010651093389588097, 0.003677488928876165, 0.0
 1477, 0.01118679155714084, 0.003677488928876165, 0.0
 1478, 0.011704640288731954, 0.003677488928876165, 0.0
 1479, 0.012205234326668665, 0.003677488928876165, 0.0
 1480, 0.012689148596474482, 0.003677488928876165, 0.0
 1481, 0.013156938867183424, 0.003677488928876165, 0.0
 1482, 0.01360914238963329, 0.003677488928876165, 0.0
 1483, 0.014046278513491023, 0.003677488928876165, 0.0
 1484, 0.01446884928371882, 0.003677488928876165, 0.0
 1485, 0.014877340017166027, 0.003677488928876165, 0.0
 1486, 0.01527221985994901, 0.003677488928876165, 0.0
 1487, 0.01565394232625917, 0.003677488928876165, 0.0
 1488, 0.016022945819217888, 0.003677488928876165, 0.0
 1489, 0.01637965413437663, 0.003677488928876165, 0.0
 1490, 0.016724476946440418, 0.003677488928876165, 0.0
 1491, 0.01705781027977375, 0.003677488928876165, 0.0
 1503, 0.021057810279773766, 0.003677488928876165, 0.0
 1504, 0.021391143613107098, 0.003677488928876165, 0.0
 1505, 0.021735966425170887, 0.003677488928876165, 0.0
 1506, 0.022092674740329627, 0.003677488928876165, 0.0
 1507, 0.022461678233288346, 0.003677488928876165, 0.0
 1508, 0.022843400699598504, 0.003677488928876165, 0.0
 1509, 0.023238280542381487, 0.003677488928876165, 0.0
 1510, 0.023646771275828694, 0.003677488928876165, 0.0
 1511, 0.024069342046056492, 0.003677488928876165, 0.0
 1512, 0.024506478169914223, 0.003677488928876165, 0.0
 1513, 0.02495868169236409, 0.003677488928876165, 0.0
 1514, 0.02542647196307303, 0.003677488928876165, 0.0
 1515, 0.025910386232878845, 0.003677488928876165, 0.0
 1516, 0.026410980270815558, 0.003677488928876165, 0.0
 1517, 0.026928829002406673, 0.003677488928876165, 0.0
 1518, 0.027464527169959417, 0.003677488928876165, 0.0
 1519, 0.028018690015618287, 0.003677488928876165, 0.0
 1520, 0.02859195398796238, 0.003677488928876165, 0.0
 1521, 0.02918497747295802, 0.003677488928876165, 0.0
 1522, 0.02979844155010622, 0.003677488928876165, 0.0
 1523, 0.0304330507746533, 0.003677488928876165, 0.0
 1524, 0.031089533986763136, 0.003677488928876165, 0.0
 1525, 0.031768645148580285, 0.003677488928876165, 0.0
 1526, 0.03247116421014538, 0.003677488928876165, 0.0
 1527, 0.033197898005157246, 0.003677488928876165, 0.0
 1528, 0.033949681177610595, 0.003677488928876165, 0.0
 1529, 0.0347273771403734, 0.003677488928876165, 0.0
 1530, 0.035531879066804974, 0.003677488928876165, 0.0
 1531, 0.036364110916553595, 0.003677488928876165, 0.0
 1532, 0.0372250284967117, 0.003677488928876165, 0.0
 1533, 0.038115620559547515, 0.003677488928876165, 0.0
 1534, 0.0, 0.0037142466718166054, 0.0
 1535, 0.0008905920628358133, 0.0037142466718166054, 0.0
 1536, 0.0017515096429939181, 0.0037142466718166054, 0.0
 1537, 0.002583741492742537, 0.0037142466718166054, 0.0
 1538, 0.0033882434191741147, 0.0037142466718166054, 0.0
 1539, 0.004165939381936917, 0.0037142466718166054, 0.0
 1540, 0.004917722554390265, 0.0037142466718166054, 0.0
 1541, 0.005644456349402134, 0.0037142466718166054, 0.0
 1542, 0.006346975410967226, 0.0037142466718166054, 0.0
 1543, 0.007026086572784376, 0.0037142466718166054, 0.0
 1544, 0.007682569784894212, 0.0037142466718166054, 0.0
 1545, 0.008317179009441292, 0.0037142466718166054, 0.0
 1546, 0.008930643086589493, 0.0037142466718166054, 0.0
 1547, 0.009523666571585137, 0.0037142466718166054, 0.0
 1548, 0.010096930543929227, 0.0037142466718166054, 0.0
 1549, 0.010651093389588097, 0.0037142466718166054, 0.0
 1550, 0.01118679155714084, 0.0037142466718166054, 0.0
 1551, 0.011704640288731954, 0.0037142466718166054, 0.0
 1552, 0.012205234326668665, 0.0037142466718166054, 0.0
 1553, 0.012689148596474482, 0.0037142466718166054, 0.0
 1554, 0.013156938867183424, 0.0037142466718166054, 0.0
 1555, 0.01360914238963329, 0.0037142466718166054, 0.0
 1556, 0.014046278513491023, 0.0037142466718166054, 0.0
 1557, 0.01446884928371882, 0.0037142466718166054, 0.0
 1558, 0.014877340017166027, 0.0037142466718166054, 0.0
 1559, 0.01527221985994901, 0.0037142466718166054, 0.0
 1560, 0.01565394232625917, 0.0037142466718166054, 0.0
 1561, 0.016022945819217888, 0.0037142466718166054, 0.0
 1562, 0.01637965413437663, 0.0037142466718166054, 0.0
 1563, 0.016724476946440418, 0.0037142466718166054, 0.0
 1564, 0.01705781027977375, 0.0037142466718166054, 0.0
 1576, 0.021057810279773766, 0.0037142466718166054, 0.0
 1577, 0.021391143613107098, 0.0037142466718166054, 0.0
 1578, 0.021735966425170887, 0.0037142466718166054, 0.0
 1579, 0.022092674740329627, 0.0037142466718166054, 0.0
 1580, 0.022461678233288346, 0.0037142466718166054, 0.0
 1581, 0.022843400699598504, 0.0037142466718166054, 0.0
 1582, 0.023238280542381487, 0.0037142466718166054, 0.0
 1583, 0.023646771275828694, 0.0037142466718166054, 0.0
 1584, 0.024069342046056492, 0.0037142466718166054, 0.0
 1585, 0.024506478169914223, 0.0037142466718166054, 0.0
 1586, 0.02495868169236409, 0.0037142466718166054, 0.0
 1587, 0.02542647196307303, 0.0037142466718166054, 0.0
 1588, 0.025910386232878845, 0.0037142466718166054, 0.0
 1589, 0.026410980270815558, 0.0037142466718166054, 0.0
 1590, 0.026928829002406673, 0.0037142466718166054, 0.0
 1591, 0.027464527169959417, 0.0037142466718166054, 0.0
 1592, 0.028018690015618287, 0.0037142466718166054, 0.0
 1593, 0.02859195398796238, 0.0037142466718166054, 0.0
 1594, 0.02918497747295802, 0.0037142466718166054, 0.0
 1595, 0.02979844155010622, 0.0037142466718166054, 0.0
 1596, 0.0304330507746533, 0.0037142466718166054, 0.0
 1597, 0.031089533986763136, 0.0037142466718166054, 0.0
 1598, 0.031768645148580285, 0.0037142466718166054, 0.0
 1599, 0.03247116421014538, 0.0037142466718166054, 0.0
 1600, 0.033197898005157246, 0.0037142466718166054, 0.0
 1601, 0.033949681177610595, 0.0037142466718166054, 0.0
 1602, 0.0347273771403734, 0.0037142466718166054, 0.0
 1603, 0.035531879066804974, 0.0037142466718166054, 0.0
 1604, 0.036364110916553595, 0.0037142466718166054, 0.0
 1605, 0.0372250284967117, 0.0037142466718166054, 0.0
 1606, 0.038115620559547515, 0.0037142466718166054, 0.0
 1607, 0.0, 0.003746572219647471, 0.0
 1608, 0.0008905920628358133, 0.003746572219647471, 0.0
 1609, 0.0017515096429939181, 0.003746572219647471, 0.0
 1610, 0.002583741492742537, 0.003746572219647471, 0.0
 1611, 0.0033882434191741147, 0.003746572219647471, 0.0
 1612, 0.004165939381936917, 0.003746572219647471, 0.0
 1613, 0.004917722554390265, 0.003746572219647471, 0.0
 1614, 0.005644456349402134, 0.003746572219647471, 0.0
 1615, 0.006346975410967226, 0.003746572219647471, 0.0
 1616, 0.007026086572784376, 0.003746572219647471, 0.0
 1617, 0.007682569784894212, 0.003746572219647471, 0.0
 1618, 0.008317179009441292, 0.003746572219647471, 0.0
 1619, 0.008930643086589493, 0.003746572219647471, 0.0
 1620, 0.009523666571585137, 0.003746572219647471, 0.0
 1621, 0.010096930543929227, 0.003746572219647471, 0.0
 1622, 0.010651093389588097, 0.003746572219647471, 0.0
 1623, 0.01118679155714084, 0.003746572219647471, 0.0
 1624, 0.011704640288731954, 0.003746572219647471, 0.0
 1625, 0.012205234326668665, 0.003746572219647471, 0.0
 1626, 0.012689148596474482, 0.003746572219647471, 0.0
 1627, 0.013156938867183424, 0.003746572219647471, 0.0
 1628, 0.01360914238963329, 0.003746572219647471, 0.0
 1629, 0.014046278513491023, 0.003746572219647471, 0.0
 1630, 0.01446884928371882, 0.003746572219647471, 0.0
 1631, 0.014877340017166027, 0.003746572219647471, 0.0
 1632, 0.01527221985994901, 0.003746572219647471, 0.0
 1633, 0.01565394232625917, 0.003746572219647471, 0.0
 1634, 0.016022945819217888, 0.003746572219647471, 0.0
 1635, 0.01637965413437663, 0.003746572219647471, 0.0
 1636, 0.016724476946440418, 0.003746572219647471, 0.0
 1637, 0.01705781027977375, 0.003746572219647471, 0.0
 1649, 0.021057810279773766, 0.003746572219647471, 0.0
 1650, 0.021391143613107098, 0.003746572219647471, 0.0
 1651, 0.021735966425170887, 0.003746572219647471, 0.0
 1652, 0.022092674740329627, 0.003746572219647471, 0.0
 1653, 0.022461678233288346, 0.003746572219647471, 0.0
 1654, 0.022843400699598504, 0.003746572219647471, 0.0
 1655, 0.023238280542381487, 0.003746572219647471, 0.0
 1656, 0.023646771275828694, 0.003746572219647471, 0.0
 1657, 0.024069342046056492, 0.003746572219647471, 0.0
 1658, 0.024506478169914223, 0.003746572219647471, 0.0
 1659, 0.02495868169236409, 0.003746572219647471, 0.0
 1660, 0.02542647196307303, 0.003746572219647471, 0.0
 1661, 0.025910386232878845, 0.003746572219647471, 0.0
 1662, 0.026410980270815558, 0.003746572219647471, 0.0
 1663, 0.026928829002406673, 0.003746572219647471, 0.0
 1664, 0.027464527169959417, 0.003746572219647471, 0.0
 1665, 0.028018690015618287, 0.003746572219647471, 0.0
 1666, 0.02859195398796238, 0.003746572219647471, 0.0
 1667, 0.02918497747295802, 0.003746572219647471, 0.0
 1668, 0.02979844155010622, 0.003746572219647471, 0.0
 1669, 0.0304330507746533, 0.003746572219647471, 0.0
 1670, 0.031089533986763136, 0.003746572219647471, 0.0
 1671, 0.031768645148580285, 0.003746572219647471, 0.0
 1672, 0.03247116421014538, 0.003746572219647471, 0.0
 1673, 0.033197898005157246, 0.003746572219647471, 0.0
 1674, 0.033949681177610595, 0.003746572219647471, 0.0
 1675, 0.0347273771403734, 0.003746572219647471, 0.0
 1676, 0.035531879066804974, 0.003746572219647471, 0.0
 1677, 0.036364110916553595, 0.003746572219647471, 0.0
 1678, 0.0372250284967117, 0.003746572219647471, 0.0
 1679, 0.038115620559547515, 0.003746572219647471, 0.0
 1680, 0.0, 0.003775, 0.0
 1681, 0.0008905920628358133, 0.003775, 0.0
 1682, 0.0017515096429939181, 0.003775, 0.0
 1683, 0.002583741492742537, 0.003775, 0.0
 1684, 0.0033882434191741147, 0.003775, 0.0
 1685, 0.004165939381936917, 0.003775, 0.0
 1686, 0.004917722554390265, 0.003775, 0.0
 1687, 0.005644456349402134, 0.003775, 0.0
 1688, 0.006346975410967226, 0.003775, 0.0
 1689, 0.007026086572784376, 0.003775, 0.0
 1690, 0.007682569784894212, 0.003775, 0.0
 1691, 0.008317179009441292, 0.003775, 0.0
 1692, 0.008930643086589493, 0.003775, 0.0
 1693, 0.009523666571585137, 0.003775, 0.0
 1694, 0.010096930543929227, 0.003775, 0.0
 1695, 0.010651093389588097, 0.003775, 0.0
 1696, 0.01118679155714084, 0.003775, 0.0
 1697, 0.011704640288731954, 0.003775, 0.0
 1698, 0.012205234326668665, 0.003775, 0.0
 1699, 0.012689148596474482, 0.003775, 0.0
 1700, 0.013156938867183424, 0.003775, 0.0
 1701, 0.01360914238963329, 0.003775, 0.0
 1702, 0.014046278513491023, 0.003775, 0.0
 1703, 0.01446884928371882, 0.003775, 0.0
 1704, 0.014877340017166027, 0.003775, 0.0
 1705, 0.01527221985994901, 0.003775, 0.0
 1706, 0.01565394232625917, 0.003775, 0.0
 1707, 0.016022945819217888, 0.003775, 0.0
 1708, 0.01637965413437663, 0.003775, 0.0
 1709, 0.016724476946440418, 0.003775, 0.0
 1710, 0.01705781027977375, 0.003775, 0.0
 1722, 0.021057810279773766, 0.003775, 0.0
 1723, 0.021391143613107098, 0.003775, 0.0
 1724, 0.021735966425170887, 0.003775, 0.0
 1725, 0.022092674740329627, 0.003775, 0.0
 1726, 0.022461678233288346, 0.003775, 0.0
 1727, 0.022843400699598504, 0.003775, 0.0
 1728, 0.023238280542381487, 0.003775, 0.0
 1729, 0.023646771275828694, 0.003775, 0.0
 1730, 0.024069342046056492, 0.003775, 0.0
 1731, 0.024506478169914223, 0.003775, 0.0
 1732, 0.02495868169236409, 0.003775, 0.0
 1733, 0.02542647196307303, 0.003775, 0.0
 1734, 0.025910386232878845, 0.003775, 0.0
 1735, 0.026410980270815558, 0.003775, 0.0
 1736, 0.026928829002406673, 0.003775, 0.0
 1737, 0.027464527169959417, 0.003775, 0.0
 1738, 0.028018690015618287, 0.003775, 0.0
 1739, 0.02859195398796238, 0.003775, 0.0
 1740, 0.02918497747295802, 0.003775, 0.0
 1741, 0.02979844155010622, 0.003775, 0.0
 1742, 0.0304330507746533, 0.003775, 0.0
 1743, 0.031089533986763136, 0.003775, 0.0
 1744, 0.031768645148580285, 0.003775, 0.0
 1745, 0.03247116421014538, 0.003775, 0.0
 1746, 0.033197898005157246, 0.003775, 0.0
 1747, 0.033949681177610595, 0.003775, 0.0
 1748, 0.0347273771403734, 0.003775, 0.0
 1749, 0.035531879066804974, 0.003775, 0.0
 1750, 0.036364110916553595, 0.003775, 0.0
 1751, 0.0372250284967117, 0.003775, 0.0
 1752, 0.038115620559547515, 0.003775, 0.0
 1753, 0.0, 0.0038, 0.0
 1754, 0.0008905920628358133, 0.0038, 0.0
 1755, 0.0017515096429939181, 0.0038, 0.0
 1756, 0.002583741492742537, 0.0038, 0.0
 1757, 0.0033882434191741147, 0.0038, 0.0
 1758, 0.004165939381936917, 0.0038, 0.0
 1759, 0.004917722554390265, 0.0038, 0.0
 1760, 0.005644456349402134, 0.0038, 0.0
 1761, 0.006346975410967226, 0.0038, 0.0
 1762, 0.007026086572784376, 0.0038, 0.0
 1763, 0.007682569784894212, 0.0038, 0.0
 1764, 0.008317179009441292, 0.0038, 0.0
 1765, 0.008930643086589493, 0.0038, 0.0
 1766, 0.009523666571585137, 0.0038, 0.0
 1767, 0.010096930543929227, 0.0038, 0.0
 1768, 0.010651093389588097, 0.0038, 0.0
 1769, 0.01118679155714084, 0.0038, 0.0
 1770, 0.011704640288731954, 0.0038, 0.0
 1771, 0.012205234326668665, 0.0038, 0.0
 1772, 0.012689148596474482, 0.0038, 0.0
 1773, 0.013156938867183424, 0.0038, 0.0
 1774, 0.01360914238963329, 0.0038, 0.0
 1775, 0.014046278513491023, 0.0038, 0.0
 1776, 0.01446884928371882, 0.0038, 0.0
 1777, 0.014877340017166027, 0.0038, 0.0
 1778, 0.01527221985994901, 0.0038, 0.0
 1779, 0.01565394232625917, 0.0038, 0.0
 1780, 0.016022945819217888, 0.0038, 0.0
 1781, 0.01637965413437663, 0.0038, 0.0
 1782, 0.016724476946440418, 0.0038, 0.0
 1783, 0.01705781027977375, 0.0038, 0.0
 1784, 0.017391143613107084, 0.0038, 0.0
 1785, 0.01772447694644042, 0.0038, 0.0
 1786, 0.018057810279773753, 0.0038, 0.0
 1787, 0.018391143613107088, 0.0038, 0.0
 1788, 0.018724476946440423, 0.0038, 0.0
 1789, 0.019057810279773758, 0.0038, 0.0
 1790, 0.019391143613107092, 0.0038, 0.0
 1791, 0.019724476946440427, 0.0038, 0.0
 1792, 0.020057810279773762, 0.0038, 0.0
 1793, 0.020391143613107097, 0.0038, 0.0
 1794, 0.02072447694644043, 0.0038, 0.0
 1795, 0.021057810279773766, 0.0038, 0.0
 1796, 0.021391143613107098, 0.0038, 0.0
 1797, 0.021735966425170887, 0.0038, 0.0
 1798, 0.022092674740329627, 0.0038, 0.0
 1799, 0.022461678233288346, 0.0038, 0.0
 1800, 0.022843400699598504, 0.0038, 0.0
 1801, 0.023238280542381487, 0.0038, 0.0
 1802, 0.023646771275828694, 0.0038, 0.0
 1803, 0.024069342046056492, 0.0038, 0.0
 1804, 0.024506478169914223, 0.0038, 0.0
 1805, 0.02495868169236409, 0.0038, 0.0
 1806, 0.02542647196307303, 0.0038, 0.0
 1807, 0.025910386232878845, 0.0038, 0.0
 1808, 0.026410980270815558, 0.0038, 0.0
 1809, 0.026928829002406673, 0.0038, 0.0
 1810, 0.027464527169959417, 0.0038, 0.0
 1811, 0.028018690015618287, 0.0038, 0.0
 1812, 0.02859195398796238, 0.0038, 0.0
 1813, 0.02918497747295802, 0.0038, 0.0
 1814, 0.02979844155010622, 0.0038, 0.0
 1815, 0.0304330507746533, 0.0038, 0.0
 1816, 0.031089533986763136, 0.0038, 0.0
 1817, 0.031768645148580285, 0.0038, 0.0
 1818, 0.03247116421014538, 0.0038, 0.0
 1819, 0.033197898005157246, 0.0038, 0.0
 1820, 0.033949681177610595, 0.0038, 0.0
 1821, 0.0347273771403734, 0.0038, 0.0
 1822, 0.035531879066804974, 0.0038, 0.0
 1823, 0.036364110916553595, 0.0038, 0.0
 1824, 0.0372250284967117, 0.0038, 0.0
 1825, 0.038115620559547515, 0.0038, 0.0
 1826, 0.0, 0.003825, 0.0
 1827, 0.0008905920628358133, 0.003825, 0.0
 1828, 0.0017515096429939181, 0.003825, 0.0
 1829, 0.002583741492742537, 0.003825, 0.0
 1830, 0.0033882434191741147, 0.003825, 0.0
 1831, 0.004165939381936917, 0.003825, 0.0
 1832, 0.004917722554390265, 0.003825, 0.0
 1833, 0.005644456349402134, 0.003825, 0.0
 1834, 0.006346975410967226, 0.003825, 0.0
 1835, 0.007026086572784376, 0.003825, 0.0
 1836, 0.007682569784894212, 0.003825, 0.0
 1837, 0.008317179009441292, 0.003825, 0.0
 1838, 0.008930643086589493, 0.003825, 0.0
 1839, 0.009523666571585137, 0.003825, 0.0
 1840, 0.010096930543929227, 0.003825, 0.0
 1841, 0.010651093389588097, 0.003825, 0.0
 1842, 0.01118679155714084, 0.003825, 0.0
 1843, 0.011704640288731954, 0.003825, 0.0
 1844, 0.012205234326668665, 0.003825, 0.0
 1845, 0.012689148596474482, 0.003825, 0.0
 1846, 0.013156938867183424, 0.003825, 0.0
 1847, 0.01360914238963329, 0.003825, 0.0
 1848, 0.014046278513491023, 0.003825, 0.0
 1849, 0.01446884928371882, 0.003825, 0.0
 1850, 0.014877340017166027, 0.003825, 0.0
 1851, 0.01527221985994901, 0.003825, 0.0
 1852, 0.01565394232625917, 0.003825, 0.0
 1853, 0.016022945819217888, 0.003825, 0.0
 1854, 0.01637965413437663, 0.003825, 0.0
 1855, 0.016724476946440418, 0.003825, 0.0
 1856, 0.01705781027977375, 0.003825, 0.0
 1857, 0.017391143613107084, 0.003825, 0.0
 1858, 0.01772447694644042, 0.003825, 0.0
 1859, 0.018057810279773753, 0.003825, 0.0
 1860, 0.018391143613107088, 0.003825, 0.0
 1861, 0.018724476946440423, 0.003825, 0.0
 1862, 0.019057810279773758, 0.003825, 0.0
 1863, 0.019391143613107092, 0.003825, 0.0
 1864, 0.019724476946440427, 0.003825, 0.0
 1865, 0.020057810279773762, 0.003825, 0.0
 1866, 0.020391143613107097, 0.003825, 0.0
 1867, 0.02072447694644043, 0.003825, 0.0
 1868, 0.021057810279773766, 0.003825, 0.0
 1869, 0.021391143613107098, 0.003825, 0.0
 1870, 0.021735966425170887, 0.003825, 0.0
 1871, 0.022092674740329627, 0.003825, 0.0
 1872, 0.022461678233288346, 0.003825, 0.0
 1873, 0.022843400699598504, 0.003825, 0.0
 1874, 0.023238280542381487, 0.003825, 0.0
 1875, 0.023646771275828694, 0.003825, 0.0
 1876, 0.024069342046056492, 0.003825, 0.0
 1877, 0.024506478169914223, 0.003825, 0.0
 1878, 0.02495868169236409, 0.003825, 0.0
 1879, 0.02542647196307303, 0.003825, 0.0
 1880, 0.025910386232878845, 0.003825, 0.0
 1881, 0.026410980270815558, 0.003825, 0.0
 1882, 0.026928829002406673, 0.003825, 0.0
 1883, 0.027464527169959417, 0.003825, 0.0
 1884, 0.028018690015618287, 0.003825, 0.0
 1885, 0.02859195398796238, 0.003825, 0.0
 1886, 0.02918497747295802, 0.003825, 0.0
 1887, 0.02979844155010622, 0.003825, 0.0
 1888, 0.0304330507746533, 0.003825, 0.0
 1889, 0.031089533986763136, 0.003825, 0.0
 1890, 0.031768645148580285, 0.003825, 0.0
 1891, 0.03247116421014538, 0.003825, 0.0
 1892, 0.033197898005157246, 0.003825, 0.0
 1893, 0.033949681177610595, 0.003825, 0.0
 1894, 0.0347273771403734, 0.003825, 0.0
 1895, 0.035531879066804974, 0.003825, 0.0
 1896, 0.036364110916553595, 0.003825, 0.0
 1897, 0.0372250284967117, 0.003825, 0.0
 1898, 0.038115620559547515, 0.003825, 0.0
 1899, 0.0, 0.0038499999999999997, 0.0
 1900, 0.0008905920628358133, 0.0038499999999999997, 0.0
 1901, 0.0017515096429939181, 0.0038499999999999997, 0.0
 1902, 0.002583741492742537, 0.0038499999999999997, 0.0
 1903, 0.0033882434191741147, 0.0038499999999999997, 0.0
 1904, 0.004165939381936917, 0.0038499999999999997, 0.0
 1905, 0.004917722554390265, 0.0038499999999999997, 0.0
 1906, 0.005644456349402134, 0.0038499999999999997, 0.0
 1907, 0.006346975410967226, 0.0038499999999999997, 0.0
 1908, 0.007026086572784376, 0.0038499999999999997, 0.0
 1909, 0.007682569784894212, 0.0038499999999999997, 0.0
 1910, 0.008317179009441292, 0.0038499999999999997, 0.0
 1911, 0.008930643086589493, 0.0038499999999999997, 0.0
 1912, 0.009523666571585137, 0.0038499999999999997, 0.0
 1913, 0.010096930543929227, 0.0038499999999999997, 0.0
 1914, 0.010651093389588097, 0.0038499999999999997, 0.0
 1915, 0.01118679155714084, 0.0038499999999999997, 0.0
 1916, 0.011704640288731954, 0.0038499999999999997, 0.0
 1917, 0.012205234326668665, 0.0038499999999999997, 0.0
 1918, 0.012689148596474482, 0.0038499999999999997, 0.0
 1919, 0.013156938867183424, 0.0038499999999999997, 0.0
 1920, 0.01360914238963329, 0.0038499999999999997, 0.0
 1921, 0.014046278513491023, 0.0038499999999999997, 0.0
 1922, 0.01446884928371882, 0.0038499999999999997, 0.0
 1923, 0.014877340017166027, 0.0038499999999999997, 0.0
 1924, 0.01527221985994901, 0.0038499999999999997, 0.0
 1925, 0.01565394232625917, 0.0038499999999999997, 0.0
 1926, 0.016022945819217888, 0.0038499999999999997, 0.0
 1927, 0.01637965413437663, 0.0038499999999999997, 0.0
 1928, 0.016724476946440418, 0.0038499999999999997, 0.0
 1929, 0.01705781027977375, 0.0038499999999999997, 0.0
 1930, 0.017391143613107084, 0.0038499999999999997, 0.0
 1931, 0.01772447694644042, 0.0038499999999999997, 0.0
 1932, 0.018057810279773753, 0.0038499999999999997, 0.0
 1933, 0.018391143613107088, 0.0038499999999999997, 0.0
 1934, 0.018724476946440423, 0.0038499999999999997, 0.0
 1935, 0.019057810279773758, 0.0038499999999999997, 0.0
 1936, 0.019391143613107092, 0.0038499999999999997, 0.0
 1937, 0.019724476946440427, 0.0038499999999999997, 0.0
 1938, 0.020057810279773762, 0.0038499999999999997, 0.0
 1939, 0.020391143613107097, 0.0038499999999999997, 0.0
 1940, 0.02072447694644043, 0.0038499999999999997, 0.0
 1941, 0.021057810279773766, 0.0038499999999999997, 0.0
 1942, 0.021391143613107098, 0.0038499999999999997, 0.0
 1943, 0.021735966425170887, 0.0038499999999999997, 0.0
 1944, 0.022092674740329627, 0.0038499999999999997, 0.0
 1945, 0.022461678233288346, 0.0038499999999999997, 0.0
 1946, 0.022843400699598504, 0.0038499999999999997, 0.0
 1947, 0.023238280542381487, 0.0038499999999999997, 0.0
 1948, 0.023646771275828694, 0.0038499999999999997, 0.0
 1949, 0.024069342046056492, 0.0038499999999999997, 0.0
 1950, 0.024506478169914223, 0.0038499999999999997, 0.0
 1951, 0.02495868169236409, 0.0038499999999999997, 0.0
 1952, 0.02542647196307303, 0.0038499999999999997, 0.0
 1953, 0.025910386232878845, 0.0038499999999999997, 0.0
 1954, 0.026410980270815558, 0.0038499999999999997, 0.0
 1955, 0.026928829002406673, 0.0038499999999999997, 0.0
 1956, 0.027464527169959417, 0.0038499999999999997, 0.0
 1957, 0.028018690015618287, 0.0038499999999999997, 0.0
 1958, 0.02859195398796238, 0.0038499999999999997, 0.0
 1959, 0.02918497747295802, 0.0038499999999999997, 0.0
 1960, 0.02979844155010622, 0.0038499999999999997, 0.0
 1961, 0.0304330507746533, 0.0038499999999999997, 0.0
 1962, 0.031089533986763136, 0.0038499999999999997, 0.0
 1963, 0.031768645148580285, 0.0038499999999999997, 0.0
 1964, 0.03247116421014538, 0.0038499999999999997, 0.0
 1965, 0.033197898005157246, 0.0038499999999999997, 0.0
 1966, 0.033949681177610595, 0.0038499999999999997, 0.0
 1967, 0.0347273771403734, 0.0038499999999999997, 0.0
 1968, 0.035531879066804974, 0.0038499999999999997, 0.0
 1969, 0.036364110916553595, 0.0038499999999999997, 0.0
 1970, 0.0372250284967117, 0.0038499999999999997, 0.0
 1971, 0.038115620559547515, 0.0038499999999999997, 0.0
 1972, 0.0, 0.0038749999999999995, 0.0
 1973, 0.0008905920628358133, 0.0038749999999999995, 0.0
 1974, 0.0017515096429939181, 0.0038749999999999995, 0.0
 1975, 0.002583741492742537, 0.0038749999999999995, 0.0
 1976, 0.0033882434191741147, 0.0038749999999999995, 0.0
 1977, 0.004165939381936917, 0.0038749999999999995, 0.0
 1978, 0.004917722554390265, 0.0038749999999999995, 0.0
 1979, 0.005644456349402134, 0.0038749999999999995, 0.0
 1980, 0.006346975410967226, 0.0038749999999999995, 0.0
 1981, 0.007026086572784376, 0.0038749999999999995, 0.0
 1982, 0.007682569784894212, 0.0038749999999999995, 0.0
 1983, 0.008317179009441292, 0.0038749999999999995, 0.0
 1984, 0.008930643086589493, 0.0038749999999999995, 0.0
 1985, 0.009523666571585137, 0.0038749999999999995, 0.0
 1986, 0.010096930543929227, 0.0038749999999999995, 0.0
 1987, 0.010651093389588097, 0.0038749999999999995, 0.0
 1988, 0.01118679155714084, 0.0038749999999999995, 0.0
 1989, 0.011704640288731954, 0.0038749999999999995, 0.0
 1990, 0.012205234326668665, 0.0038749999999999995, 0.0
 1991, 0.012689148596474482, 0.0038749999999999995, 0.0
 1992, 0.013156938867183424, 0.0038749999999999995, 0.0
 1993, 0.01360914238963329, 0.0038749999999999995, 0.0
 1994, 0.014046278513491023, 0.0038749999999999995, 0.0
 1995, 0.01446884928371882, 0.0038749999999999995, 0.0
 1996, 0.014877340017166027, 0.0038749999999999995, 0.0
 1997, 0.01527221985994901, 0.0038749999999999995, 0.0
 1998, 0.01565394232625917, 0.0038749999999999995, 0.0
 1999, 0.016022945819217888, 0.0038749999999999995, 0.0
 2000, 0.01637965413437663, 0.0038749999999999995, 0.0
 2001, 0.016724476946440418, 0.0038749999999999995, 0.0
 2002, 0.01705781027977375, 0.0038749999999999995, 0.0
 2003, 0.017391143613107084, 0.0038749999999999995, 0.0
 2004, 0.01772447694644042, 0.0038749999999999995, 0.0
 2005, 0.018057810279773753, 0.0038749999999999995, 0.0
 2006, 0.018391143613107088, 0.0038749999999999995, 0.0
 2007, 0.018724476946440423, 0.0038749999999999995, 0.0
 2008, 0.019057810279773758, 0.0038749999999999995, 0.0
 2009, 0.019391143613107092, 0.0038749999999999995, 0.0
 2010, 0.019724476946440427, 0.0038749999999999995, 0.0
 2011, 0.020057810279773762, 0.0038749999999999995, 0.0
 2012, 0.020391143613107097, 0.0038749999999999995, 0.0
 2013, 0.02072447694644043, 0.0038749999999999995, 0.0
 2014, 0.021057810279773766, 0.0038749999999999995, 0.0
 2015, 0.021391143613107098, 0.0038749999999999995, 0.0
 2016, 0.021735966425170887, 0.0038749999999999995, 0.0
 2017, 0.022092674740329627, 0.0038749999999999995, 0.0
 2018, 0.022461678233288346, 0.0038749999999999995, 0.0
 2019, 0.022843400699598504, 0.0038749999999999995, 0.0
 2020, 0.023238280542381487, 0.0038749999999999995, 0.0
 2021, 0.023646771275828694, 0.0038749999999999995, 0.0
 2022, 0.024069342046056492, 0.0038749999999999995, 0.0
 2023, 0.024506478169914223, 0.0038749999999999995, 0.0
 2024, 0.02495868169236409, 0.0038749999999999995, 0.0
 2025, 0.02542647196307303, 0.0038749999999999995, 0.0
 2026, 0.025910386232878845, 0.0038749999999999995, 0.0
 2027, 0.026410980270815558, 0.0038749999999999995, 0.0
 2028, 0.026928829002406673, 0.0038749999999999995, 0.0
 2029, 0.027464527169959417, 0.0038749999999999995, 0.0
 2030, 0.028018690015618287, 0.0038749999999999995, 0.0
 2031, 0.02859195398796238, 0.0038749999999999995, 0.0
 2032, 0.02918497747295802, 0.0038749999999999995, 0.0
 2033, 0.02979844155010622, 0.0038749999999999995, 0.0
 2034, 0.0304330507746533, 0.0038749999999999995, 0.0
 2035, 0.031089533986763136, 0.0038749999999999995, 0.0
 2036, 0.031768645148580285, 0.0038749999999999995, 0.0
 2037, 0.03247116421014538, 0.0038749999999999995, 0.0
 2038, 0.033197898005157246, 0.0038749999999999995, 0.0
 2039, 0.033949681177610595, 0.0038749999999999995, 0.0
 2040, 0.0347273771403734, 0.0038749999999999995, 0.0
 2041, 0.035531879066804974, 0.0038749999999999995, 0.0
 2042, 0.036364110916553595, 0.0038749999999999995, 0.0
 2043, 0.0372250284967117, 0.0038749999999999995, 0.0
 2044, 0.038115620559547515, 0.0038749999999999995, 0.0
 2045, 0.0, 0.0038999999999999994, 0.0
 2046, 0.0008905920628358133, 0.0038999999999999994, 0.0
 2047, 0.0017515096429939181, 0.0038999999999999994, 0.0
 2048, 0.002583741492742537, 0.0038999999999999994, 0.0
 2049, 0.0033882434191741147, 0.0038999999999999994, 0.0
 2050, 0.004165939381936917, 0.0038999999999999994, 0.0
 2051, 0.004917722554390265, 0.0038999999999999994, 0.0
 2052, 0.005644456349402134, 0.0038999999999999994, 0.0
 2053, 0.006346975410967226, 0.0038999999999999994, 0.0
 2054, 0.007026086572784376, 0.0038999999999999994, 0.0
 2055, 0.007682569784894212, 0.0038999999999999994, 0.0
 2056, 0.008317179009441292, 0.0038999999999999994, 0.0
 2057, 0.008930643086589493, 0.0038999999999999994, 0.0
 2058, 0.009523666571585137, 0.0038999999999999994, 0.0
 2059, 0.010096930543929227, 0.0038999999999999994, 0.0
 2060, 0.010651093389588097, 0.0038999999999999994, 0.0
 2061, 0.01118679155714084, 0.0038999999999999994, 0.0
 2062, 0.011704640288731954, 0.0038999999999999994, 0.0
 2063, 0.012205234326668665, 0.0038999999999999994, 0.0
 2064, 0.012689148596474482, 0.0038999999999999994, 0.0
 2065, 0.013156938867183424, 0.0038999999999999994, 0.0
 2066, 0.01360914238963329, 0.0038999999999999994, 0.0
 2067, 0.014046278513491023, 0.0038999999999999994, 0.0
 2068, 0.01446884928371882, 0.0038999999999999994, 0.0
 2069, 0.014877340017166027, 0.0038999999999999994, 0.0
 2070, 0.01527221985994901, 0.0038999999999999994, 0.0
 2071, 0.01565394232625917, 0.0038999999999999994, 0.0
 2072, 0.016022945819217888, 0.0038999999999999994, 0.0
 2073, 0.01637965413437663, 0.0038999999999999994, 0.0
 2074, 0.016724476946440418, 0.0038999999999999994, 0.0
 2075, 0.01705781027977375, 0.0038999999999999994, 0.0
 2076, 0.017391143613107084, 0.0038999999999999994, 0.0
 2077, 0.01772447694644042, 0.0038999999999999994, 0.0
 2078, 0.018057810279773753, 0.0038999999999999994, 0.0
 2079, 0.018391143613107088, 0.0038999999999999994, 0.0
 2080, 0.018724476946440423, 0.0038999999999999994, 0.0
 2081, 0.019057810279773758, 0.0038999999999999994, 0.0
 2082, 0.019391143613107092, 0.0038999999999999994, 0.0
 2083, 0.019724476946440427, 0.0038999999999999994, 0.0
 2084, 0.020057810279773762, 0.0038999999999999994, 0.0
 2085, 0.020391143613107097, 0.0038999999999999994, 0.0
 2086, 0.02072447694644043, 0.0038999999999999994, 0.0
 2087, 0.021057810279773766, 0.0038999999999999994, 0.0
 2088, 0.021391143613107098, 0.0038999999999999994, 0.0
 2089, 0.021735966425170887, 0.0038999999999999994, 0.0
 2090, 0.022092674740329627, 0.0038999999999999994, 0.0
 2091, 0.022461678233288346, 0.0038999999999999994, 0.0
 2092, 0.022843400699598504, 0.0038999999999999994, 0.0
 2093, 0.023238280542381487, 0.0038999999999999994, 0.0
 2094, 0.023646771275828694, 0.0038999999999999994, 0.0
 2095, 0.024069342046056492, 0.0038999999999999994, 0.0
 2096, 0.024506478169914223, 0.0038999999999999994, 0.0
 2097, 0.02495868169236409, 0.0038999999999999994, 0.0
 2098, 0.02542647196307303, 0.0038999999999999994, 0.0
 2099, 0.025910386232878845, 0.0038999999999999994, 0.0
 2100, 0.026410980270815558, 0.0038999999999999994, 0.0
 2101, 0.026928829002406673, 0.0038999999999999994, 0.0
 2102, 0.027464527169959417, 0.0038999999999999994, 0.0
 2103, 0.028018690015618287, 0.0038999999999999994, 0.0
 2104, 0.02859195398796238, 0.0038999999999999994, 0.0
 2105, 0.02918497747295802, 0.0038999999999999994, 0.0
 2106, 0.02979844155010622, 0.0038999999999999994, 0.0
 2107, 0.0304330507746533, 0.0038999999999999994, 0.0
 2108, 0.031089533986763136, 0.0038999999999999994, 0.0
 2109, 0.031768645148580285, 0.0038999999999999994, 0.0
 2110, 0.03247116421014538, 0.0038999999999999994, 0.0
 2111, 0.033197898005157246, 0.0038999999999999994, 0.0
 2112, 0.033949681177610595, 0.0038999999999999994, 0.0
 2113, 0.0347273771403734, 0.0038999999999999994, 0.0
 2114, 0.035531879066804974, 0.0038999999999999994, 0.0
 2115, 0.036364110916553595, 0.0038999999999999994, 0.0
 2116, 0.0372250284967117, 0.0038999999999999994, 0.0
 2117, 0.038115620559547515, 0.0038999999999999994, 0.0
 2118, 0.0, 0.003925, 0.0
 2119, 0.0008905920628358133, 0.003925, 0.0
 2120, 0.0017515096429939181, 0.003925, 0.0
 2121, 0.002583741492742537, 0.003925, 0.0
 2122, 0.0033882434191741147, 0.003925, 0.0
 2123, 0.004165939381936917, 0.003925, 0.0
 2124, 0.004917722554390265, 0.003925, 0.0
 2125, 0.005644456349402134, 0.003925, 0.0
 2126, 0.006346975410967226, 0.003925, 0.0
 2127, 0.007026086572784376, 0.003925, 0.0
 2128, 0.007682569784894212, 0.003925, 0.0
 2129, 0.008317179009441292, 0.003925, 0.0
 2130, 0.008930643086589493, 0.003925, 0.0
 2131, 0.009523666571585137, 0.003925, 0.0
 2132, 0.010096930543929227, 0.003925, 0.0
 2133, 0.010651093389588097, 0.003925, 0.0
 2134, 0.01118679155714084, 0.003925, 0.0
 2135, 0.011704640288731954, 0.003925, 0.0
 2136, 0.012205234326668665, 0.003925, 0.0
 2137, 0.012689148596474482, 0.003925, 0.0
 2138, 0.013156938867183424, 0.003925, 0.0
 2139, 0.01360914238963329, 0.003925, 0.0
 2140, 0.014046278513491023, 0.003925, 0.0
 2141, 0.01446884928371882, 0.003925, 0.0
 2142, 0.014877340017166027, 0.003925, 0.0
 2143, 0.01527221985994901, 0.003925, 0.0
 2144, 0.01565394232625917, 0.003925, 0.0
 2145, 0.016022945819217888, 0.003925, 0.0
 2146, 0.01637965413437663, 0.003925, 0.0
 2147, 0.016724476946440418, 0.003925, 0.0
 2148, 0.01705781027977375, 0.003925, 0.0
 2149, 0.017391143613107084, 0.003925, 0.0
 2150, 0.01772447694644042, 0.003925, 0.0
 2151, 0.018057810279773753, 0.003925, 0.0
 2152, 0.018391143613107088, 0.003925, 0.0
 2153, 0.018724476946440423, 0.003925, 0.0
 2154, 0.019057810279773758, 0.003925, 0.0
 2155, 0.019391143613107092, 0.003925, 0.0
 2156, 0.019724476946440427, 0.003925, 0.0
 2157, 0.020057810279773762, 0.003925, 0.0
 2158, 0.020391143613107097, 0.003925, 0.0
 2159, 0.02072447694644043, 0.003925, 0.0
 2160, 0.021057810279773766, 0.003925, 0.0
 2161, 0.021391143613107098, 0.003925, 0.0
 2162, 0.021735966425170887, 0.003925, 0.0
 2163, 0.022092674740329627, 0.003925, 0.0
 2164, 0.022461678233288346, 0.003925, 0.0
 2165, 0.022843400699598504, 0.003925, 0.0
 2166, 0.023238280542381487, 0.003925, 0.0
 2167, 0.023646771275828694, 0.003925, 0.0
 2168, 0.024069342046056492, 0.003925, 0.0
 2169, 0.024506478169914223, 0.003925, 0.0
 2170, 0.02495868169236409, 0.003925, 0.0
 2171, 0.02542647196307303, 0.003925, 0.0
 2172, 0.025910386232878845, 0.003925, 0.0
 2173, 0.026410980270815558, 0.003925, 0.0
 2174, 0.026928829002406673, 0.003925, 0.0
 2175, 0.027464527169959417, 0.003925, 0.0
 2176, 0.028018690015618287, 0.003925, 0.0
 2177, 0.02859195398796238, 0.003925, 0.0
 2178, 0.02918497747295802, 0.003925, 0.0
 2179, 0.02979844155010622, 0.003925, 0.0
 2180, 0.0304330507746533, 0.003925, 0.0
 2181, 0.031089533986763136, 0.003925, 0.0
 2182, 0.031768645148580285, 0.003925, 0.0
 2183, 0.03247116421014538, 0.003925, 0.0
 2184, 0.033197898005157246, 0.003925, 0.0
 2185, 0.033949681177610595, 0.003925, 0.0
 2186, 0.0347273771403734, 0.003925, 0.0
 2187, 0.035531879066804974, 0.003925, 0.0
 2188, 0.036364110916553595, 0.003925, 0.0
 2189, 0.0372250284967117, 0.003925, 0.0
 2190, 0.038115620559547515, 0.003925, 0.0
 2191, 0.0, 0.0039499999999999995, 0.0
 2192, 0.0008905920628358133, 0.0039499999999999995, 0.0
 2193, 0.0017515096429939181, 0.0039499999999999995, 0.0
 2194, 0.002583741492742537, 0.0039499999999999995, 0.0
 2195, 0.0033882434191741147, 0.0039499999999999995, 0.0
 2196, 0.004165939381936917, 0.0039499999999999995, 0.0
 2197, 0.004917722554390265, 0.0039499999999999995, 0.0
 2198, 0.005644456349402134, 0.0039499999999999995, 0.0
 2199, 0.006346975410967226, 0.0039499999999999995, 0.0
 2200, 0.007026086572784376, 0.0039499999999999995, 0.0
 2201, 0.007682569784894212, 0.0039499999999999995, 0.0
 2202, 0.008317179009441292, 0.0039499999999999995, 0.0
 2203, 0.008930643086589493, 0.0039499999999999995, 0.0
 2204, 0.009523666571585137, 0.0039499999999999995, 0.0
 2205, 0.010096930543929227, 0.0039499999999999995, 0.0
 2206, 0.010651093389588097, 0.0039499999999999995, 0.0
 2207, 0.01118679155714084, 0.0039499999999999995, 0.0
 2208, 0.011704640288731954, 0.0039499999999999995, 0.0
 2209, 0.012205234326668665, 0.0039499999999999995, 0.0
 2210, 0.012689148596474482, 0.0039499999999999995, 0.0
 2211, 0.013156938867183424, 0.0039499999999999995, 0.0
 2212, 0.01360914238963329, 0.0039499999999999995, 0.0
 2213, 0.014046278513491023, 0.0039499999999999995, 0.0
 2214, 0.01446884928371882, 0.0039499999999999995, 0.0
 2215, 0.014877340017166027, 0.0039499999999999995, 0.0
 2216, 0.01527221985994901, 0.0039499999999999995, 0.0
 2217, 0.01565394232625917, 0.0039499999999999995, 0.0
 2218, 0.016022945819217888, 0.0039499999999999995, 0.0
 2219, 0.01637965413437663, 0.0039499999999999995, 0.0
 2220, 0.016724476946440418, 0.0039499999999999995, 0.0
 2221, 0.01705781027977375, 0.0039499999999999995, 0.0
 2222, 0.017391143613107084, 0.0039499999999999995, 0.0
 2223, 0.01772447694644042, 0.0039499999999999995, 0.0
 2224, 0.018057810279773753, 0.0039499999999999995, 0.0
 2225, 0.018391143613107088, 0.0039499999999999995, 0.0
 2226, 0.018724476946440423, 0.0039499999999999995, 0.0
 2227, 0.019057810279773758, 0.0039499999999999995, 0.0
 2228, 0.019391143613107092, 0.0039499999999999995, 0.0
 2229, 0.019724476946440427, 0.0039499999999999995, 0.0
 2230, 0.020057810279773762, 0.0039499999999999995, 0.0
 2231, 0.020391143613107097, 0.0039499999999999995, 0.0
 2232, 0.02072447694644043, 0.0039499999999999995, 0.0
 2233, 0.021057810279773766, 0.0039499999999999995, 0.0
 2234, 0.021391143613107098, 0.0039499999999999995, 0.0
 2235, 0.021735966425170887, 0.0039499999999999995, 0.0
 2236, 0.022092674740329627, 0.0039499999999999995, 0.0
 2237, 0.022461678233288346, 0.0039499999999999995, 0.0
 2238, 0.022843400699598504, 0.0039499999999999995, 0.0
 2239, 0.023238280542381487, 0.0039499999999999995, 0.0
 2240, 0.023646771275828694, 0.0039499999999999995, 0.0
 2241, 0.024069342046056492, 0.0039499999999999995, 0.0
 2242, 0.024506478169914223, 0.0039499999999999995, 0.0
 2243, 0.02495868169236409, 0.0039499999999999995, 0.0
 2244, 0.02542647196307303, 0.0039499999999999995, 0.0
 2245, 0.025910386232878845, 0.0039499999999999995, 0.0
 2246, 0.026410980270815558, 0.0039499999999999995, 0.0
 2247, 0.026928829002406673, 0.0039499999999999995, 0.0
 2248, 0.027464527169959417, 0.0039499999999999995, 0.0
 2249, 0.028018690015618287, 0.0039499999999999995, 0.0
 2250, 0.02859195398796238, 0.0039499999999999995, 0.0
 2251, 0.02918497747295802, 0.0039499999999999995, 0.0
 2252, 0.02979844155010622, 0.0039499999999999995, 0.0
 2253, 0.0304330507746533, 0.0039499999999999995, 0.0
 2254, 0.031089533986763136, 0.0039499999999999995, 0.0
 2255, 0.031768645148580285, 0.0039499999999999995, 0.0
 2256, 0.03247116421014538, 0.0039499999999999995, 0.0
 2257, 0.033197898005157246, 0.0039499999999999995, 0.0
 2258, 0.033949681177610595, 0.0039499999999999995, 0.0
 2259, 0.0347273771403734, 0.0039499999999999995, 0.0
 2260, 0.035531879066804974, 0.0039499999999999995, 0.0
 2261, 0.036364110916553595, 0.0039499999999999995, 0.0
 2262, 0.0372250284967117, 0.0039499999999999995, 0.0
 2263, 0.038115620559547515, 0.0039499999999999995, 0.0
 2264, 0.0, 0.003974999999999999, 0.0
 2265, 0.0008905920628358133, 0.003974999999999999, 0.0
 2266, 0.0017515096429939181, 0.003974999999999999, 0.0
 2267, 0.002583741492742537, 0.003974999999999999, 0.0
 2268, 0.0033882434191741147, 0.003974999999999999, 0.0
 2269, 0.004165939381936917, 0.003974999999999999, 0.0
 2270, 0.004917722554390265, 0.003974999999999999, 0.0
 2271, 0.005644456349402134, 0.003974999999999999, 0.0
 2272, 0.006346975410967226, 0.003974999999999999, 0.0
 2273, 0.007026086572784376, 0.003974999999999999, 0.0
 2274, 0.007682569784894212, 0.003974999999999999, 0.0
 2275, 0.008317179009441292, 0.003974999999999999, 0.0
 2276, 0.008930643086589493, 0.003974999999999999, 0.0
 2277, 0.009523666571585137, 0.003974999999999999, 0.0
 2278, 0.010096930543929227, 0.003974999999999999, 0.0
 2279, 0.010651093389588097, 0.003974999999999999, 0.0
 2280, 0.01118679155714084, 0.003974999999999999, 0.0
 2281, 0.011704640288731954, 0.003974999999999999, 0.0
 2282, 0.012205234326668665, 0.003974999999999999, 0.0
 2283, 0.012689148596474482, 0.003974999999999999, 0.0
 2284, 0.013156938867183424, 0.003974999999999999, 0.0
 2285, 0.01360914238963329, 0.003974999999999999, 0.0
 2286, 0.014046278513491023, 0.003974999999999999, 0.0
 2287, 0.01446884928371882, 0.003974999999999999, 0.0
 2288, 0.014877340017166027, 0.003974999999999999, 0.0
 2289, 0.01527221985994901, 0.003974999999999999, 0.0
 2290, 0.01565394232625917, 0.003974999999999999, 0.0
 2291, 0.016022945819217888, 0.003974999999999999, 0.0
 2292, 0.01637965413437663, 0.003974999999999999, 0.0
 2293, 0.016724476946440418, 0.003974999999999999, 0.0
 2294, 0.01705781027977375, 0.003974999999999999, 0.0
 2295, 0.017391143613107084, 0.003974999999999999, 0.0
 2296, 0.01772447694644042, 0.003974999999999999, 0.0
 2297, 0.018057810279773753, 0.003974999999999999, 0.0
 2298, 0.018391143613107088, 0.003974999999999999, 0.0
 2299, 0.018724476946440423, 0.003974999999999999, 0.0
 2300, 0.019057810279773758, 0.003974999999999999, 0.0
 2301, 0.019391143613107092, 0.003974999999999999, 0.0
 2302, 0.019724476946440427, 0.003974999999999999, 0.0
 2303, 0.020057810279773762, 0.003974999999999999, 0.0
 2304, 0.020391143613107097, 0.003974999999999999, 0.0
 2305, 0.02072447694644043, 0.003974999999999999, 0.0
 2306, 0.021057810279773766, 0.003974999999999999, 0.0
 2307, 0.021391143613107098, 0.003974999999999999, 0.0
 2308, 0.021735966425170887, 0.003974999999999999, 0.0
 2309, 0.022092674740329627, 0.003974999999999999, 0.0
 2310, 0.022461678233288346, 0.003974999999999999, 0.0
 2311, 0.022843400699598504, 0.003974999999999999, 0.0
 2312, 0.023238280542381487, 0.003974999999999999, 0.0
 2313, 0.023646771275828694, 0.003974999999999999, 0.0
 2314, 0.024069342046056492, 0.003974999999999999, 0.0
 2315, 0.024506478169914223, 0.003974999999999999, 0.0
 2316, 0.02495868169236409, 0.003974999999999999, 0.0
 2317, 0.02542647196307303, 0.003974999999999999, 0.0
 2318, 0.025910386232878845, 0.003974999999999999, 0.0
 2319, 0.026410980270815558, 0.003974999999999999, 0.0
 2320, 0.026928829002406673, 0.003974999999999999, 0.0
 2321, 0.027464527169959417, 0.003974999999999999, 0.0
 2322, 0.028018690015618287, 0.003974999999999999, 0.0
 2323, 0.02859195398796238, 0.003974999999999999, 0.0
 2324, 0.02918497747295802, 0.003974999999999999, 0.0
 2325, 0.02979844155010622, 0.003974999999999999, 0.0
 2326, 0.0304330507746533, 0.003974999999999999, 0.0
 2327, 0.031089533986763136, 0.003974999999999999, 0.0
 2328, 0.031768645148580285, 0.003974999999999999, 0.0
 2329, 0.03247116421014538, 0.003974999999999999, 0.0
 2330, 0.033197898005157246, 0.003974999999999999, 0.0
 2331, 0.033949681177610595, 0.003974999999999999, 0.0
 2332, 0.0347273771403734, 0.003974999999999999, 0.0
 2333, 0.035531879066804974, 0.003974999999999999, 0.0
 2334, 0.036364110916553595, 0.003974999999999999, 0.0
 2335, 0.0372250284967117, 0.003974999999999999, 0.0
 2336, 0.038115620559547515, 0.003974999999999999, 0.0
 2337, 0.0, 0.003999999999999999, 0.0
 2338, 0.0008905920628358133, 0.003999999999999999, 0.0
 2339, 0.0017515096429939181, 0.003999999999999999, 0.0
 2340, 0.002583741492742537, 0.003999999999999999, 0.0
 2341, 0.0033882434191741147, 0.003999999999999999, 0.0
 2342, 0.004165939381936917, 0.003999999999999999, 0.0
 2343, 0.004917722554390265, 0.003999999999999999, 0.0
 2344, 0.005644456349402134, 0.003999999999999999, 0.0
 2345, 0.006346975410967226, 0.003999999999999999, 0.0
 2346, 0.007026086572784376, 0.003999999999999999, 0.0
 2347, 0.007682569784894212, 0.003999999999999999, 0.0
 2348, 0.008317179009441292, 0.003999999999999999, 0.0
 2349, 0.008930643086589493, 0.003999999999999999, 0.0
 2350, 0.009523666571585137, 0.003999999999999999, 0.0
 2351, 0.010096930543929227, 0.003999999999999999, 0.0
 2352, 0.010651093389588097, 0.003999999999999999, 0.0
 2353, 0.01118679155714084, 0.003999999999999999, 0.0
 2354, 0.011704640288731954, 0.003999999999999999, 0.0
 2355, 0.012205234326668665, 0.003999999999999999, 0.0
 2356, 0.012689148596474482, 0.003999999999999999, 0.0
 2357, 0.013156938867183424, 0.003999999999999999, 0.0
 2358, 0.01360914238963329, 0.003999999999999999, 0.0
 2359, 0.014046278513491023, 0.003999999999999999, 0.0
 2360, 0.01446884928371882, 0.003999999999999999, 0.0
 2361, 0.014877340017166027, 0.003999999999999999, 0.0
 2362, 0.01527221985994901, 0.003999999999999999, 0.0
 2363, 0.01565394232625917, 0.003999999999999999, 0.0
 2364, 0.016022945819217888, 0.003999999999999999, 0.0
 2365, 0.01637965413437663, 0.003999999999999999, 0.0
 2366, 0.016724476946440418, 0.003999999999999999, 0.0
 2367, 0.01705781027977375, 0.003999999999999999, 0.0
 2368, 0.017391143613107084, 0.003999999999999999, 0.0
 2369, 0.01772447694644042, 0.003999999999999999, 0.0
 2370, 0.018057810279773753, 0.003999999999999999, 0.0
 2371, 0.018391143613107088, 0.003999999999999999, 0.0
 2372, 0.018724476946440423, 0.003999999999999999, 0.0
 2373, 0.019057810279773758, 0.003999999999999999, 0.0
 2374, 0.019391143613107092, 0.003999999999999999, 0.0
 2375, 0.019724476946440427, 0.003999999999999999, 0.0
 2376, 0.020057810279773762, 0.003999999999999999, 0.0
 2377, 0.020391143613107097, 0.003999999999999999, 0.0
 2378, 0.02072447694644043, 0.003999999999999999, 0.0
 2379, 0.021057810279773766, 0.003999999999999999, 0.0
 2380, 0.021391143613107098, 0.003999999999999999, 0.0
 2381, 0.021735966425170887, 0.003999999999999999, 0.0
 2382, 0.022092674740329627, 0.003999999999999999, 0.0
 2383, 0.022461678233288346, 0.003999999999999999, 0.0
 2384, 0.022843400699598504, 0.003999999999999999, 0.0
 2385, 0.023238280542381487, 0.003999999999999999, 0.0
 2386, 0.023646771275828694, 0.003999999999999999, 0.0
 2387, 0.024069342046056492, 0.003999999999999999, 0.0
 2388, 0.024506478169914223, 0.003999999999999999, 0.0
 2389, 0.02495868169236409, 0.003999999999999999, 0.0
 2390, 0.02542647196307303, 0.003999999999999999, 0.0
 2391, 0.025910386232878845, 0.003999999999999999, 0.0
 2392, 0.026410980270815558, 0.003999999999999999, 0.0
 2393, 0.026928829002406673, 0.003999999999999999, 0.0
 2394, 0.027464527169959417, 0.003999999999999999, 0.0
 2395, 0.028018690015618287, 0.003999999999999999, 0.0
 2396, 0.02859195398796238, 0.003999999999999999, 0.0
 2397, 0.02918497747295802, 0.003999999999999999, 0.0
 2398, 0.02979844155010622, 0.003999999999999999, 0.0
 2399, 0.0304330507746533, 0.003999999999999999, 0.0
 2400, 0.031089533986763136, 0.003999999999999999, 0.0
 2401, 0.031768645148580285, 0.003999999999999999, 0.0
 2402, 0.03247116421014538, 0.003999999999999999, 0.0
 2403, 0.033197898005157246, 0.003999999999999999, 0.0
 2404, 0.033949681177610595, 0.003999999999999999, 0.0
 2405, 0.0347273771403734, 0.003999999999999999, 0.0
 2406, 0.035531879066804974, 0.003999999999999999, 0.0
 2407, 0.036364110916553595, 0.003999999999999999, 0.0
 2408, 0.0372250284967117, 0.003999999999999999, 0.0
 2409, 0.038115620559547515, 0.003999999999999999, 0.0
 2410, 0.0, 0.0, 0.0004
 2411, 0.0008905920628358133, 0.0, 0.0004
 2412, 0.0017515096429939181, 0.0, 0.0004
 2413, 0.002583741492742537, 0.0, 0.0004
 2414, 0.0033882434191741147, 0.0, 0.0004
 2415, 0.004165939381936917, 0.0, 0.0004
 2416, 0.004917722554390265, 0.0, 0.0004
 2417, 0.005644456349402134, 0.0, 0.0004
 2418, 0.006346975410967226, 0.0, 0.0004
 2419, 0.007026086572784376, 0.0, 0.0004
 2420, 0.007682569784894212, 0.0, 0.0004
 2421, 0.008317179009441292, 0.0, 0.0004
 2422, 0.008930643086589493, 0.0, 0.0004
 2423, 0.009523666571585137, 0.0, 0.0004
 2424, 0.010096930543929227, 0.0, 0.0004
 2425, 0.010651093389588097, 0.0, 0.0004
 2426, 0.01118679155714084, 0.0, 0.0004
 2427, 0.011704640288731954, 0.0, 0.0004
 2428, 0.012205234326668665, 0.0, 0.0004
 2429, 0.012689148596474482, 0.0, 0.0004
 2430, 0.013156938867183424, 0.0, 0.0004
 2431, 0.01360914238963329, 0.0, 0.0004
 2432, 0.014046278513491023, 0.0, 0.0004
 2433, 0.01446884928371882, 0.0, 0.0004
 2434, 0.014877340017166027, 0.0, 0.0004
 2435, 0.01527221985994901, 0.0, 0.0004
 2436, 0.01565394232625917, 0.0, 0.0004
 2437, 0.016022945819217888, 0.0, 0.0004
 2438, 0.01637965413437663, 0.0, 0.0004
 2439, 0.016724476946440418, 0.0, 0.0004
 2440, 0.01705781027977375, 0.0, 0.0004
 2452, 0.021057810279773766, 0.0, 0.0004
 2453, 0.021391143613107098, 0.0, 0.0004
 2454, 0.021735966425170887, 0.0, 0.0004
 2455, 0.022092674740329627, 0.0, 0.0004
 2456, 0.022461678233288346, 0.0, 0.0004
 2457, 0.022843400699598504, 0.0, 0.0004
 2458, 0.023238280542381487, 0.0, 0.0004
 2459, 0.023646771275828694, 0.0, 0.0004
 2460, 0.024069342046056492, 0.0, 0.0004
 2461, 0.024506478169914223, 0.0, 0.0004
 2462, 0.02495868169236409, 0.0, 0.0004
 2463, 0.02542647196307303, 0.0, 0.0004
 2464, 0.025910386232878845, 0.0, 0.0004
 2465, 0.026410980270815558, 0.0, 0.0004
 2466, 0.026928829002406673, 0.0, 0.0004
 2467, 0.027464527169959417, 0.0, 0.0004
 2468, 0.028018690015618287, 0.0, 0.0004
 2469, 0.02859195398796238, 0.0, 0.0004
 2470, 0.02918497747295802, 0.0, 0.0004
 2471, 0.02979844155010622, 0.0, 0.0004
 2472, 0.0304330507746533, 0.0, 0.0004
 2473, 0.031089533986763136, 0.0, 0.0004
 2474, 0.031768645148580285, 0.0, 0.0004
 2475, 0.03247116421014538, 0.0, 0.0004
 2476, 0.033197898005157246, 0.0, 0.0004
 2477, 0.033949681177610595, 0.0, 0.0004
 2478, 0.0347273771403734, 0.0, 0.0004
 2479, 0.035531879066804974, 0.0, 0.0004
 2480, 0.036364110916553595, 0.0, 0.0004
 2481, 0.0372250284967117, 0.0, 0.0004
 2482, 0.038115620559547515, 0.0, 0.0004
 2483, 0.0, 0.0004801840020688147, 0.0004
 2484, 0.0008905920628358133, 0.0004801840020688147, 0.0004
 2485, 0.0017515096429939181, 0.0004801840020688147, 0.0004
 2486, 0.002583741492742537, 0.0004801840020688147, 0.0004
 2487, 0.0033882434191741147, 0.0004801840020688147, 0.0004
 2488, 0.004165939381936917, 0.0004801840020688147, 0.0004
 2489, 0.004917722554390265, 0.0004801840020688147, 0.0004
 2490, 0.005644456349402134, 0.0004801840020688147, 0.0004
 2491, 0.006346975410967226, 0.0004801840020688147, 0.0004
 2492, 0.007026086572784376, 0.0004801840020688147, 0.0004
 2493, 0.007682569784894212, 0.0004801840020688147, 0.0004
 2494, 0.008317179009441292, 0.0004801840020688147, 0.0004
 2495, 0.008930643086589493, 0.0004801840020688147, 0.0004
 2496, 0.009523666571585137, 0.0004801840020688147, 0.0004
 2497, 0.010096930543929227, 0.0004801840020688147, 0.0004
 2498, 0.010651093389588097, 0.0004801840020688147, 0.0004
 2499, 0.01118679155714084, 0.0004801840020688147, 0.0004
 2500, 0.011704640288731954, 0.0004801840020688147, 0.0004
 2501, 0.012205234326668665, 0.0004801840020688147, 0.0004
 2502, 0.012689148596474482, 0.0004801840020688147, 0.0004
 2503, 0.013156938867183424, 0.0004801840020688147, 0.0004
 2504, 0.01360914238963329, 0.0004801840020688147, 0.0004
 2505, 0.014046278513491023, 0.0004801840020688147, 0.0004
 2506, 0.01446884928371882, 0.0004801840020688147, 0.0004
 2507, 0.014877340017166027, 0.0004801840020688147, 0.0004
 2508, 0.01527221985994901, 0.0004801840020688147, 0.0004
 2509, 0.01565394232625917, 0.0004801840020688147, 0.0004
 2510, 0.016022945819217888, 0.0004801840020688147, 0.0004
 2511, 0.01637965413437663, 0.0004801840020688147, 0.0004
 2512, 0.016724476946440418, 0.0004801840020688147, 0.0004
 2513, 0.01705781027977375, 0.0004801840020688147, 0.0004
 2525, 0.021057810279773766, 0.0004801840020688147, 0.0004
 2526, 0.021391143613107098, 0.0004801840020688147, 0.0004
 2527, 0.021735966425170887, 0.0004801840020688147, 0.0004
 2528, 0.022092674740329627, 0.0004801840020688147, 0.0004
 2529, 0.022461678233288346, 0.0004801840020688147, 0.0004
 2530, 0.022843400699598504, 0.0004801840020688147, 0.0004
 2531, 0.023238280542381487, 0.0004801840020688147, 0.0004
 2532, 0.023646771275828694, 0.0004801840020688147, 0.0004
 2533, 0.024069342046056492, 0.0004801840020688147, 0.0004
 2534, 0.024506478169914223, 0.0004801840020688147, 0.0004
 2535, 0.02495868169236409, 0.0004801840020688147, 0.0004
 2536, 0.02542647196307303, 0.0004801840020688147, 0.0004
 2537, 0.025910386232878845, 0.0004801840020688147, 0.0004
 2538, 0.026410980270815558, 0.0004801840020688147, 0.0004
 2539, 0.026928829002406673, 0.0004801840020688147, 0.0004
 2540, 0.027464527169959417, 0.0004801840020688147, 0.0004
 2541, 0.028018690015618287, 0.0004801840020688147, 0.0004
 2542, 0.02859195398796238, 0.0004801840020688147, 0.0004
 2543, 0.02918497747295802, 0.0004801840020688147, 0.0004
 2544, 0.02979844155010622, 0.0004801840020688147, 0.0004
 2545, 0.0304330507746533, 0.0004801840020688147, 0.0004
 2546, 0.031089533986763136, 0.0004801840020688147, 0.0004
 2547, 0.031768645148580285, 0.0004801840020688147, 0.0004
 2548, 0.03247116421014538, 0.0004801840020688147, 0.0004
 2549, 0.033197898005157246, 0.0004801840020688147, 0.0004
 2550, 0.033949681177610595, 0.0004801840020688147, 0.0004
 2551, 0.0347273771403734, 0.0004801840020688147, 0.0004
 2552, 0.035531879066804974, 0.0004801840020688147, 0.0004
 2553, 0.036364110916553595, 0.0004801840020688147, 0.0004
 2554, 0.0372250284967117, 0.0004801840020688147, 0.0004
 2555, 0.038115620559547515, 0.0004801840020688147, 0.0004
 2556, 0.0, 0.0009024681165108471, 0.0004
 2557, 0.0008905920628358133, 0.0009024681165108471, 0.0004
 2558, 0.0017515096429939181, 0.0009024681165108471, 0.0004
 2559, 0.002583741492742537, 0.0009024681165108471, 0.0004
 2560, 0.0033882434191741147, 0.0009024681165108471, 0.0004
 2561, 0.004165939381936917, 0.0009024681165108471, 0.0004
 2562, 0.004917722554390265, 0.0009024681165108471, 0.0004
 2563, 0.005644456349402134, 0.0009024681165108471, 0.0004
 2564, 0.006346975410967226, 0.0009024681165108471, 0.0004
 2565, 0.007026086572784376, 0.0009024681165108471, 0.0004
 2566, 0.007682569784894212, 0.0009024681165108471, 0.0004
 2567, 0.008317179009441292, 0.0009024681165108471, 0.0004
 2568, 0.008930643086589493, 0.0009024681165108471, 0.0004
 2569, 0.009523666571585137, 0.0009024681165108471, 0.0004
 2570, 0.010096930543929227, 0.0009024681165108471, 0.0004
 2571, 0.010651093389588097, 0.0009024681165108471, 0.0004
 2572, 0.01118679155714084, 0.0009024681165108471, 0.0004
 2573, 0.011704640288731954, 0.0009024681165108471, 0.0004
 2574, 0.012205234326668665, 0.0009024681165108471, 0.0004
 2575, 0.012689148596474482, 0.0009024681165108471, 0.0004
 2576, 0.013156938867183424, 0.0009024681165108471, 0.0004
 2577, 0.01360914238963329, 0.0009024681165108471, 0.0004
 2578, 0.014046278513491023, 0.0009024681165108471, 0.0004
 2579, 0.01446884928371882, 0.0009024681165108471, 0.0004
 2580, 0.014877340017166027, 0.0009024681165108471, 0.0004
 2581, 0.01527221985994901, 0.0009024681165108471, 0.0004
 2582, 0.01565394232625917, 0.0009024681165108471, 0.0004
 2583, 0.016022945819217888, 0.0009024681165108471, 0.0004
 2584, 0.01637965413437663, 0.0009024681165108471, 0.0004
 2585, 0.016724476946440418, 0.0009024681165108471, 0.0004
 2586, 0.01705781027977375, 0.0009024681165108471, 0.0004
 2598, 0.021057810279773766, 0.0009024681165108471, 0.0004
 2599, 0.021391143613107098, 0.0009024681165108471, 0.0004
 2600, 0.021735966425170887, 0.0009024681165108471, 0.0004
 2601, 0.022092674740329627, 0.0009024681165108471, 0.0004
 2602, 0.022461678233288346, 0.0009024681165108471, 0.0004
 2603, 0.022843400699598504, 0.0009024681165108471, 0.0004
 2604, 0.023238280542381487, 0.0009024681165108471, 0.0004
 2605, 0.023646771275828694, 0.0009024681165108471, 0.0004
 2606, 0.024069342046056492, 0.0009024681165108471, 0.0004
 2607, 0.024506478169914223, 0.0009024681165108471, 0.0004
 2608, 0.02495868169236409, 0.0009024681165108471, 0.0004
 2609, 0.02542647196307303, 0.0009024681165108471, 0.0004
 2610, 0.025910386232878845, 0.0009024681165108471, 0.0004
 2611, 0.026410980270815558, 0.0009024681165108471, 0.0004
 2612, 0.026928829002406673, 0.0009024681165108471, 0.0004
 2613, 0.027464527169959417, 0.0009024681165108471, 0.0004
 2614, 0.028018690015618287, 0.0009024681165108471, 0.0004
 2615, 0.02859195398796238, 0.0009024681165108471, 0.0004
 2616, 0.02918497747295802, 0.0009024681165108471, 0.0004
 2617, 0.02979844155010622, 0.0009024681165108471, 0.0004
 2618, 0.0304330507746533, 0.0009024681165108471, 0.0004
 2619, 0.031089533986763136, 0.0009024681165108471, 0.0004
 2620, 0.031768645148580285, 0.0009024681165108471, 0.0004
 2621, 0.03247116421014538, 0.0009024681165108471, 0.0004
 2622, 0.033197898005157246, 0.0009024681165108471, 0.0004
 2623, 0.033949681177610595, 0.0009024681165108471, 0.0004
 2624, 0.0347273771403734, 0.0009024681165108471, 0.0004
 2625, 0.035531879066804974, 0.0009024681165108471, 0.0004
 2626, 0.036364110916553595, 0.0009024681165108471, 0.0004
 2627, 0.0372250284967117, 0.0009024681165108471, 0.0004
 2628, 0.038115620559547515, 0.0009024681165108471, 0.0004
 2629, 0.0, 0.0012738338274504136, 0.0004
 2630, 0.0008905920628358133, 0.0012738338274504136, 0.0004
 2631, 0.0017515096429939181, 0.0012738338274504136, 0.0004
 2632, 0.002583741492742537, 0.0012738338274504136, 0.0004
 2633, 0.0033882434191741147, 0.0012738338274504136, 0.0004
 2634, 0.004165939381936917, 0.0012738338274504136, 0.0004
 2635, 0.004917722554390265, 0.0012738338274504136, 0.0004
 2636, 0.005644456349402134, 0.0012738338274504136, 0.0004
 2637, 0.006346975410967226, 0.0012738338274504136, 0.0004
 2638, 0.007026086572784376, 0.0012738338274504136, 0.0004
 2639, 0.007682569784894212, 0.0012738338274504136, 0.0004
 2640, 0.008317179009441292, 0.0012738338274504136, 0.0004
 2641, 0.008930643086589493, 0.0012738338274504136, 0.0004
 2642, 0.009523666571585137, 0.0012738338274504136, 0.0004
 2643, 0.010096930543929227, 0.0012738338274504136, 0.0004
 2644, 0.010651093389588097, 0.0012738338274504136, 0.0004
 2645, 0.01118679155714084, 0.0012738338274504136, 0.0004
 2646, 0.011704640288731954, 0.0012738338274504136, 0.0004
 2647, 0.012205234326668665, 0.0012738338274504136, 0.0004
 2648, 0.012689148596474482, 0.0012738338274504136, 0.0004
 2649, 0.013156938867183424, 0.0012738338274504136, 0.0004
 2650, 0.01360914238963329, 0.0012738338274504136, 0.0004
 2651, 0.014046278513491023, 0.0012738338274504136, 0.0004
 2652, 0.01446884928371882, 0.0012738338274504136, 0.0004
 2653, 0.014877340017166027, 0.0012738338274504136, 0.0004
 2654, 0.01527221985994901, 0.0012738338274504136, 0.0004
 2655, 0.01565394232625917, 0.0012738338274504136, 0.0004
 2656, 0.016022945819217888, 0.0012738338274504136, 0.0004
 2657, 0.01637965413437663, 0.0012738338274504136, 0.0004
 2658, 0.016724476946440418, 0.0012738338274504136, 0.0004
 2659, 0.01705781027977375, 0.0012738338274504136, 0.0004
 2671, 0.021057810279773766, 0.0012738338274504136, 0.0004
 2672, 0.021391143613107098, 0.0012738338274504136, 0.0004
 2673, 0.021735966425170887, 0.0012738338274504136, 0.0004
 2674, 0.022092674740329627, 0.0012738338274504136, 0.0004
 2675, 0.022461678233288346, 0.0012738338274504136, 0.0004
 2676, 0.022843400699598504, 0.0012738338274504136, 0.0004
 2677, 0.023238280542381487, 0.0012738338274504136, 0.0004
 2678, 0.023646771275828694, 0.0012738338274504136, 0.0004
 2679, 0.024069342046056492, 0.0012738338274504136, 0.0004
 2680, 0.024506478169914223, 0.0012738338274504136, 0.0004
 2681, 0.02495868169236409, 0.0012738338274504136, 0.0004
 2682, 0.02542647196307303, 0.0012738338274504136, 0.0004
 2683, 0.025910386232878845, 0.0012738338274504136, 0.0004
 2684, 0.026410980270815558, 0.0012738338274504136, 0.0004
 2685, 0.026928829002406673, 0.0012738338274504136, 0.0004
 2686, 0.027464527169959417, 0.0012738338274504136, 0.0004
 2687, 0.028018690015618287, 0.0012738338274504136, 0.0004
 2688, 0.02859195398796238, 0.0012738338274504136, 0.0004
 2689, 0.02918497747295802, 0.0012738338274504136, 0.0004
 2690, 0.02979844155010622, 0.0012738338274504136, 0.0004
 2691, 0.0304330507746533, 0.0012738338274504136, 0.0004
 2692, 0.031089533986763136, 0.0012738338274504136, 0.0004
 2693, 0.031768645148580285, 0.0012738338274504136, 0.0004
 2694, 0.03247116421014538, 0.0012738338274504136, 0.0004
 2695, 0.033197898005157246, 0.0012738338274504136, 0.0004
 2696, 0.033949681177610595, 0.0012738338274504136, 0.0004
 2697, 0.0347273771403734, 0.0012738338274504136, 0.0004
 2698, 0.035531879066804974, 0.0012738338274504136, 0.0004
 2699, 0.036364110916553595, 0.0012738338274504136, 0.0004
 2700, 0.0372250284967117, 0.0012738338274504136, 0.0004
 2701, 0.038115620559547515, 0.0012738338274504136, 0.0004
 2702, 0.0, 0.0016004208018239926, 0.0004
 2703, 0.0008905920628358133, 0.0016004208018239926, 0.0004
 2704, 0.0017515096429939181, 0.0016004208018239926, 0.0004
 2705, 0.002583741492742537, 0.0016004208018239926, 0.0004
 2706, 0.0033882434191741147, 0.0016004208018239926, 0.0004
 2707, 0.004165939381936917, 0.0016004208018239926, 0.0004
 2708, 0.004917722554390265, 0.0016004208018239926, 0.0004
 2709, 0.005644456349402134, 0.0016004208018239926, 0.0004
 2710, 0.006346975410967226, 0.0016004208018239926, 0.0004
 2711, 0.007026086572784376, 0.0016004208018239926, 0.0004
 2712, 0.007682569784894212, 0.0016004208018239926, 0.0004
 2713, 0.008317179009441292, 0.0016004208018239926, 0.0004
 2714, 0.008930643086589493, 0.0016004208018239926, 0.0004
 2715, 0.009523666571585137, 0.0016004208018239926, 0.0004
 2716, 0.010096930543929227, 0.0016004208018239926, 0.0004
 2717, 0.010651093389588097, 0.0016004208018239926, 0.0004
 2718, 0.01118679155714084, 0.0016004208018239926, 0.0004
 2719, 0.011704640288731954, 0.0016004208018239926, 0.0004
 2720, 0.012205234326668665, 0.0016004208018239926, 0.0004
 2721, 0.012689148596474482, 0.0016004208018239926, 0.0004
 2722, 0.013156938867183424, 0.0016004208018239926, 0.0004
 2723, 0.01360914238963329, 0.0016004208018239926, 0.0004
 2724, 0.014046278513491023, 0.0016004208018239926, 0.0004
 2725, 0.01446884928371882, 0.0016004208018239926, 0.0004
 2726, 0.014877340017166027, 0.0016004208018239926, 0.0004
 2727, 0.01527221985994901, 0.0016004208018239926, 0.0004
 2728, 0.01565394232625917, 0.0016004208018239926, 0.0004
 2729, 0.016022945819217888, 0.0016004208018239926, 0.0004
 2730, 0.01637965413437663, 0.0016004208018239926, 0.0004
 2731, 0.016724476946440418, 0.0016004208018239926, 0.0004
 2732, 0.01705781027977375, 0.0016004208018239926, 0.0004
 2744, 0.021057810279773766, 0.0016004208018239926, 0.0004
 2745, 0.021391143613107098, 0.0016004208018239926, 0.0004
 2746, 0.021735966425170887, 0.0016004208018239926, 0.0004
 2747, 0.022092674740329627, 0.0016004208018239926, 0.0004
 2748, 0.022461678233288346, 0.0016004208018239926, 0.0004
 2749, 0.022843400699598504, 0.0016004208018239926, 0.0004
 2750, 0.023238280542381487, 0.0016004208018239926, 0.0004
 2751, 0.023646771275828694, 0.0016004208018239926, 0.0004
 2752, 0.024069342046056492, 0.0016004208018239926, 0.0004
 2753, 0.024506478169914223, 0.0016004208018239926, 0.0004
 2754, 0.02495868169236409, 0.0016004208018239926, 0.0004
 2755, 0.02542647196307303, 0.0016004208018239926, 0.0004
 2756, 0.025910386232878845, 0.0016004208018239926, 0.0004
 2757, 0.026410980270815558, 0.0016004208018239926, 0.0004
 2758, 0.026928829002406673, 0.0016004208018239926, 0.0004
 2759, 0.027464527169959417, 0.0016004208018239926, 0.0004
 2760, 0.028018690015618287, 0.0016004208018239926, 0.0004
 2761, 0.02859195398796238, 0.0016004208018239926, 0.0004
 2762, 0.02918497747295802, 0.0016004208018239926, 0.0004
 2763, 0.02979844155010622, 0.0016004208018239926, 0.0004
 2764, 0.0304330507746533, 0.0016004208018239926, 0.0004
 2765, 0.031089533986763136, 0.0016004208018239926, 0.0004
 2766, 0.031768645148580285, 0.0016004208018239926, 0.0004
 2767, 0.03247116421014538, 0.0016004208018239926, 0.0004
 2768, 0.033197898005157246, 0.0016004208018239926, 0.0004
 2769, 0.033949681177610595, 0.0016004208018239926, 0.0004
 2770, 0.0347273771403734, 0.0016004208018239926, 0.0004
 2771, 0.035531879066804974, 0.0016004208018239926, 0.0004
 2772, 0.036364110916553595, 0.0016004208018239926, 0.0004
 2773, 0.0372250284967117, 0.0016004208018239926, 0.0004
 2774, 0.038115620559547515, 0.0016004208018239926, 0.0004
 2775, 0.0, 0.0018876283944707075, 0.0004
 2776, 0.0008905920628358133, 0.0018876283944707075, 0.0004
 2777, 0.0017515096429939181, 0.0018876283944707075, 0.0004
 2778, 0.002583741492742537, 0.0018876283944707075, 0.0004
 2779, 0.0033882434191741147, 0.0018876283944707075, 0.0004
 2780, 0.004165939381936917, 0.0018876283944707075, 0.0004
 2781, 0.004917722554390265, 0.0018876283944707075, 0.0004
 2782, 0.005644456349402134, 0.0018876283944707075, 0.0004
 2783, 0.006346975410967226, 0.0018876283944707075, 0.0004
 2784, 0.007026086572784376, 0.0018876283944707075, 0.0004
 2785, 0.007682569784894212, 0.0018876283944707075, 0.0004
 2786, 0.008317179009441292, 0.0018876283944707075, 0.0004
 2787, 0.008930643086589493, 0.0018876283944707075, 0.0004
 2788, 0.009523666571585137, 0.0018876283944707075, 0.0004
 2789, 0.010096930543929227, 0.0018876283944707075, 0.0004
 2790, 0.010651093389588097, 0.0018876283944707075, 0.0004
 2791, 0.01118679155714084, 0.0018876283944707075, 0.0004
 2792, 0.011704640288731954, 0.0018876283944707075, 0.0004
 2793, 0.012205234326668665, 0.0018876283944707075, 0.0004
 2794, 0.012689148596474482, 0.0018876283944707075, 0.0004
 2795, 0.013156938867183424, 0.0018876283944707075, 0.0004
 2796, 0.01360914238963329, 0.0018876283944707075, 0.0004
 2797, 0.014046278513491023, 0.0018876283944707075, 0.0004
 2798, 0.01446884928371882, 0.0018876283944707075, 0.0004
 2799, 0.014877340017166027, 0.0018876283944707075, 0.0004
 2800, 0.01527221985994901, 0.0018876283944707075, 0.0004
 2801, 0.01565394232625917, 0.0018876283944707075, 0.0004
 2802, 0.016022945819217888, 0.0018876283944707075, 0.0004
 2803, 0.01637965413437663, 0.0018876283944707075, 0.0004
 2804, 0.016724476946440418, 0.0018876283944707075, 0.0004
 2805, 0.01705781027977375, 0.0018876283944707075, 0.0004
 2817, 0.021057810279773766, 0.0018876283944707075, 0.0004
 2818, 0.021391143613107098, 0.0018876283944707075, 0.0004
 2819, 0.021735966425170887, 0.0018876283944707075, 0.0004
 2820, 0.022092674740329627, 0.0018876283944707075, 0.0004
 2821, 0.022461678233288346, 0.0018876283944707075, 0.0004
 2822, 0.022843400699598504, 0.0018876283944707075, 0.0004
 2823, 0.023238280542381487, 0.0018876283944707075, 0.0004
 2824, 0.023646771275828694, 0.0018876283944707075, 0.0004
 2825, 0.024069342046056492, 0.0018876283944707075, 0.0004
 2826, 0.024506478169914223, 0.0018876283944707075, 0.0004
 2827, 0.02495868169236409, 0.0018876283944707075, 0.0004
 2828, 0.02542647196307303, 0.0018876283944707075, 0.0004
 2829, 0.025910386232878845, 0.0018876283944707075, 0.0004
 2830, 0.026410980270815558, 0.0018876283944707075, 0.0004
 2831, 0.026928829002406673, 0.0018876283944707075, 0.0004
 2832, 0.027464527169959417, 0.0018876283944707075, 0.0004
 2833, 0.028018690015618287, 0.0018876283944707075, 0.0004
 2834, 0.02859195398796238, 0.0018876283944707075, 0.0004
 2835, 0.02918497747295802, 0.0018876283944707075, 0.0004
 2836, 0.02979844155010622, 0.0018876283944707075, 0.0004
 2837, 0.0304330507746533, 0.0018876283944707075, 0.0004
 2838, 0.031089533986763136, 0.0018876283944707075, 0.0004
 2839, 0.031768645148580285, 0.0018876283944707075, 0.0004
 2840, 0.03247116421014538, 0.0018876283944707075, 0.0004
 2841, 0.033197898005157246, 0.0018876283944707075, 0.0004
 2842, 0.033949681177610595, 0.0018876283944707075, 0.0004
 2843, 0.0347273771403734, 0.0018876283944707075, 0.0004
 2844, 0.035531879066804974, 0.0018876283944707075, 0.0004
 2845, 0.036364110916553595, 0.0018876283944707075, 0.0004
 2846, 0.0372250284967117, 0.0018876283944707075, 0.0004
 2847, 0.038115620559547515, 0.0018876283944707075, 0.0004
 2848, 0.0, 0.0021402049138868314, 0.0004
 2849, 0.0008905920628358133, 0.0021402049138868314, 0.0004
 2850, 0.0017515096429939181, 0.0021402049138868314, 0.0004
 2851, 0.002583741492742537, 0.0021402049138868314, 0.0004
 2852, 0.0033882434191741147, 0.0021402049138868314, 0.0004
 2853, 0.004165939381936917, 0.0021402049138868314, 0.0004
 2854, 0.004917722554390265, 0.0021402049138868314, 0.0004
 2855, 0.005644456349402134, 0.0021402049138868314, 0.0004
 2856, 0.006346975410967226, 0.0021402049138868314, 0.0004
 2857, 0.007026086572784376, 0.0021402049138868314, 0.0004
 2858, 0.007682569784894212, 0.0021402049138868314, 0.0004
 2859, 0.008317179009441292, 0.0021402049138868314, 0.0004
 2860, 0.008930643086589493, 0.0021402049138868314, 0.0004
 2861, 0.009523666571585137, 0.0021402049138868314, 0.0004
 2862, 0.010096930543929227, 0.0021402049138868314, 0.0004
 2863, 0.010651093389588097, 0.0021402049138868314, 0.0004
 2864, 0.01118679155714084, 0.0021402049138868314, 0.0004
 2865, 0.011704640288731954, 0.0021402049138868314, 0.0004
 2866, 0.012205234326668665, 0.0021402049138868314, 0.0004
 2867, 0.012689148596474482, 0.0021402049138868314, 0.0004
 2868, 0.013156938867183424, 0.0021402049138868314, 0.0004
 2869, 0.01360914238963329, 0.0021402049138868314, 0.0004
 2870, 0.014046278513491023, 0.0021402049138868314, 0.0004
 2871, 0.01446884928371882, 0.0021402049138868314, 0.0004
 2872, 0.014877340017166027, 0.0021402049138868314, 0.0004
 2873, 0.01527221985994901, 0.0021402049138868314, 0.0004
 2874, 0.01565394232625917, 0.0021402049138868314, 0.0004
 2875, 0.016022945819217888, 0.0021402049138868314, 0.0004
 2876, 0.01637965413437663, 0.0021402049138868314, 0.0004
 2877, 0.016724476946440418, 0.0021402049138868314, 0.0004
 2878, 0.01705781027977375, 0.0021402049138868314, 0.0004
 2890, 0.021057810279773766, 0.0021402049138868314, 0.0004
 2891, 0.021391143613107098, 0.0021402049138868314, 0.0004
 2892, 0.021735966425170887, 0.0021402049138868314, 0.0004
 2893, 0.022092674740329627, 0.0021402049138868314, 0.0004
 2894, 0.022461678233288346, 0.0021402049138868314, 0.0004
 2895, 0.022843400699598504, 0.0021402049138868314, 0.0004
 2896, 0.023238280542381487, 0.0021402049138868314, 0.0004
 2897, 0.023646771275828694, 0.0021402049138868314, 0.0004
 2898, 0.024069342046056492, 0.0021402049138868314, 0.0004
 2899, 0.024506478169914223, 0.0021402049138868314, 0.0004
 2900, 0.02495868169236409, 0.0021402049138868314, 0.0004
 2901, 0.02542647196307303, 0.0021402049138868314, 0.0004
 2902, 0.025910386232878845, 0.0021402049138868314, 0.0004
 2903, 0.026410980270815558, 0.0021402049138868314, 0.0004
 2904, 0.026928829002406673, 0.0021402049138868314, 0.0004
 2905, 0.027464527169959417, 0.0021402049138868314, 0.0004
 2906, 0.028018690015618287, 0.0021402049138868314, 0.0004
 2907, 0.02859195398796238, 0.0021402049138868314, 0.0004
 2908, 0.02918497747295802, 0.0021402049138868314, 0.0004
 2909, 0.02979844155010622, 0.0021402049138868314, 0.0004
 2910, 0.0304330507746533, 0.0021402049138868314, 0.0004
 2911, 0.031089533986763136, 0.0021402049138868314, 0.0004
 2912, 0.031768645148580285, 0.0021402049138868314, 0.0004
 2913, 0.03247116421014538, 0.0021402049138868314, 0.0004
 2914, 0.033197898005157246, 0.0021402049138868314, 0.0004
 2915, 0.033949681177610595, 0.0021402049138868314, 0.0004
 2916, 0.0347273771403734, 0.0021402049138868314, 0.0004
 2917, 0.035531879066804974, 0.0021402049138868314, 0.0004
 2918, 0.036364110916553595, 0.0021402049138868314, 0.0004
 2919, 0.0372250284967117, 0.0021402049138868314, 0.0004
 2920, 0.038115620559547515, 0.0021402049138868314, 0.0004
 2921, 0.0, 0.0023623261244456193, 0.0004
 2922, 0.0008905920628358133, 0.0023623261244456193, 0.0004
 2923, 0.0017515096429939181, 0.0023623261244456193, 0.0004
 2924, 0.002583741492742537, 0.0023623261244456193, 0.0004
 2925, 0.0033882434191741147, 0.0023623261244456193, 0.0004
 2926, 0.004165939381936917, 0.0023623261244456193, 0.0004
 2927, 0.004917722554390265, 0.0023623261244456193, 0.0004
 2928, 0.005644456349402134, 0.0023623261244456193, 0.0004
 2929, 0.006346975410967226, 0.0023623261244456193, 0.0004
 2930, 0.007026086572784376, 0.0023623261244456193, 0.0004
 2931, 0.007682569784894212, 0.0023623261244456193, 0.0004
 2932, 0.008317179009441292, 0.0023623261244456193, 0.0004
 2933, 0.008930643086589493, 0.0023623261244456193, 0.0004
 2934, 0.009523666571585137, 0.0023623261244456193, 0.0004
 2935, 0.010096930543929227, 0.0023623261244456193, 0.0004
 2936, 0.010651093389588097, 0.0023623261244456193, 0.0004
 2937, 0.01118679155714084, 0.0023623261244456193, 0.0004
 2938, 0.011704640288731954, 0.0023623261244456193, 0.0004
 2939, 0.012205234326668665, 0.0023623261244456193, 0.0004
 2940, 0.012689148596474482, 0.0023623261244456193, 0.0004
 2941, 0.013156938867183424, 0.0023623261244456193, 0.0004
 2942, 0.01360914238963329, 0.0023623261244456193, 0.0004
 2943, 0.014046278513491023, 0.0023623261244456193, 0.0004
 2944, 0.01446884928371882, 0.0023623261244456193, 0.0004
 2945, 0.014877340017166027, 0.0023623261244456193, 0.0004
 2946, 0.01527221985994901, 0.0023623261244456193, 0.0004
 2947, 0.01565394232625917, 0.0023623261244456193, 0.0004
 2948, 0.016022945819217888, 0.0023623261244456193, 0.0004
 2949, 0.01637965413437663, 0.0023623261244456193, 0.0004
 2950, 0.016724476946440418, 0.0023623261244456193, 0.0004
 2951, 0.01705781027977375, 0.0023623261244456193, 0.0004
 2963, 0.021057810279773766, 0.0023623261244456193, 0.0004
 2964, 0.021391143613107098, 0.0023623261244456193, 0.0004
 2965, 0.021735966425170887, 0.0023623261244456193, 0.0004
 2966, 0.022092674740329627, 0.0023623261244456193, 0.0004
 2967, 0.022461678233288346, 0.0023623261244456193, 0.0004
 2968, 0.022843400699598504, 0.0023623261244456193, 0.0004
 2969, 0.023238280542381487, 0.0023623261244456193, 0.0004
 2970, 0.023646771275828694, 0.0023623261244456193, 0.0004
 2971, 0.024069342046056492, 0.0023623261244456193, 0.0004
 2972, 0.024506478169914223, 0.0023623261244456193, 0.0004
 2973, 0.02495868169236409, 0.0023623261244456193, 0.0004
 2974, 0.02542647196307303, 0.0023623261244456193, 0.0004
 2975, 0.025910386232878845, 0.0023623261244456193, 0.0004
 2976, 0.026410980270815558, 0.0023623261244456193, 0.0004
 2977, 0.026928829002406673, 0.0023623261244456193, 0.0004
 2978, 0.027464527169959417, 0.0023623261244456193, 0.0004
 2979, 0.028018690015618287, 0.0023623261244456193, 0.0004
 2980, 0.02859195398796238, 0.0023623261244456193, 0.0004
 2981, 0.02918497747295802, 0.0023623261244456193, 0.0004
 2982, 0.02979844155010622, 0.0023623261244456193, 0.0004
 2983, 0.0304330507746533, 0.0023623261244456193, 0.0004
 2984, 0.031089533986763136, 0.0023623261244456193, 0.0004
 2985, 0.031768645148580285, 0.0023623261244456193, 0.0004
 2986, 0.03247116421014538, 0.0023623261244456193, 0.0004
 2987, 0.033197898005157246, 0.0023623261244456193, 0.0004
 2988, 0.033949681177610595, 0.0023623261244456193, 0.0004
 2989, 0.0347273771403734, 0.0023623261244456193, 0.0004
 2990, 0.035531879066804974, 0.0023623261244456193, 0.0004
 2991, 0.036364110916553595, 0.0023623261244456193, 0.0004
 2992, 0.0372250284967117, 0.0023623261244456193, 0.0004
 2993, 0.038115620559547515, 0.0023623261244456193, 0.0004
 2994, 0.0, 0.002557664282933806, 0.0004
 2995, 0.0008905920628358133, 0.002557664282933806, 0.0004
 2996, 0.0017515096429939181, 0.002557664282933806, 0.0004
 2997, 0.002583741492742537, 0.002557664282933806, 0.0004
 2998, 0.0033882434191741147, 0.002557664282933806, 0.0004
 2999, 0.004165939381936917, 0.002557664282933806, 0.0004
 3000, 0.004917722554390265, 0.002557664282933806, 0.0004
 3001, 0.005644456349402134, 0.002557664282933806, 0.0004
 3002, 0.006346975410967226, 0.002557664282933806, 0.0004
 3003, 0.007026086572784376, 0.002557664282933806, 0.0004
 3004, 0.007682569784894212, 0.002557664282933806, 0.0004
 3005, 0.008317179009441292, 0.002557664282933806, 0.0004
 3006, 0.008930643086589493, 0.002557664282933806, 0.0004
 3007, 0.009523666571585137, 0.002557664282933806, 0.0004
 3008, 0.010096930543929227, 0.002557664282933806, 0.0004
 3009, 0.010651093389588097, 0.002557664282933806, 0.0004
 3010, 0.01118679155714084, 0.002557664282933806, 0.0004
 3011, 0.011704640288731954, 0.002557664282933806, 0.0004
 3012, 0.012205234326668665, 0.002557664282933806, 0.0004
 3013, 0.012689148596474482, 0.002557664282933806, 0.0004
 3014, 0.013156938867183424, 0.002557664282933806, 0.0004
 3015, 0.01360914238963329, 0.002557664282933806, 0.0004
 3016, 0.014046278513491023, 0.002557664282933806, 0.0004
 3017, 0.01446884928371882, 0.002557664282933806, 0.0004
 3018, 0.014877340017166027, 0.002557664282933806, 0.0004
 3019, 0.01527221985994901, 0.002557664282933806, 0.0004
 3020, 0.01565394232625917, 0.002557664282933806, 0.0004
 3021, 0.016022945819217888, 0.002557664282933806, 0.0004
 3022, 0.01637965413437663, 0.002557664282933806, 0.0004
 3023, 0.016724476946440418, 0.002557664282933806, 0.0004
 3024, 0.01705781027977375, 0.002557664282933806, 0.0004
 3036, 0.021057810279773766, 0.002557664282933806, 0.0004
 3037, 0.021391143613107098, 0.002557664282933806, 0.0004
 3038, 0.021735966425170887, 0.002557664282933806, 0.0004
 3039, 0.022092674740329627, 0.002557664282933806, 0.0004
 3040, 0.022461678233288346, 0.002557664282933806, 0.0004
 3041, 0.022843400699598504, 0.002557664282933806, 0.0004
 3042, 0.023238280542381487, 0.002557664282933806, 0.0004
 3043, 0.023646771275828694, 0.002557664282933806, 0.0004
 3044, 0.024069342046056492, 0.002557664282933806, 0.0004
 3045, 0.024506478169914223, 0.002557664282933806, 0.0004
 3046, 0.02495868169236409, 0.002557664282933806, 0.0004
 3047, 0.02542647196307303, 0.002557664282933806, 0.0004
 3048, 0.025910386232878845, 0.002557664282933806, 0.0004
 3049, 0.026410980270815558, 0.002557664282933806, 0.0004
 3050, 0.026928829002406673, 0.002557664282933806, 0.0004
 3051, 0.027464527169959417, 0.002557664282933806, 0.0004
 3052, 0.028018690015618287, 0.002557664282933806, 0.0004
 3053, 0.02859195398796238, 0.002557664282933806, 0.0004
 3054, 0.02918497747295802, 0.002557664282933806, 0.0004
 3055, 0.02979844155010622, 0.002557664282933806, 0.0004
 3056, 0.0304330507746533, 0.002557664282933806, 0.0004
 3057, 0.031089533986763136, 0.002557664282933806, 0.0004
 3058, 0.031768645148580285, 0.002557664282933806, 0.0004
 3059, 0.03247116421014538, 0.002557664282933806, 0.0004
 3060, 0.033197898005157246, 0.002557664282933806, 0.0004
 3061, 0.033949681177610595, 0.002557664282933806, 0.0004
 3062, 0.0347273771403734, 0.002557664282933806, 0.0004
 3063, 0.035531879066804974, 0.002557664282933806, 0.0004
 3064, 0.036364110916553595, 0.002557664282933806, 0.0004
 3065, 0.0372250284967117, 0.002557664282933806, 0.0004
 3066, 0.038115620559547515, 0.002557664282933806, 0.0004
 3067, 0.0, 0.002729448850763078, 0.0004
 3068, 0.0008905920628358133, 0.002729448850763078, 0.0004
 3069, 0.0017515096429939181, 0.002729448850763078, 0.0004
 3070, 0.002583741492742537, 0.002729448850763078, 0.0004
 3071, 0.0033882434191741147, 0.002729448850763078, 0.0004
 3072, 0.004165939381936917, 0.002729448850763078, 0.0004
 3073, 0.004917722554390265, 0.002729448850763078, 0.0004
 3074, 0.005644456349402134, 0.002729448850763078, 0.0004
 3075, 0.006346975410967226, 0.002729448850763078, 0.0004
 3076, 0.007026086572784376, 0.002729448850763078, 0.0004
 3077, 0.007682569784894212, 0.002729448850763078, 0.0004
 3078, 0.008317179009441292, 0.002729448850763078, 0.0004
 3079, 0.008930643086589493, 0.002729448850763078, 0.0004
 3080, 0.009523666571585137, 0.002729448850763078, 0.0004
 3081, 0.010096930543929227, 0.002729448850763078, 0.0004
 3082, 0.010651093389588097, 0.002729448850763078, 0.0004
 3083, 0.01118679155714084, 0.002729448850763078, 0.0004
 3084, 0.011704640288731954, 0.002729448850763078, 0.0004
 3085, 0.012205234326668665, 0.002729448850763078, 0.0004
 3086, 0.012689148596474482, 0.002729448850763078, 0.0004
 3087, 0.013156938867183424, 0.002729448850763078, 0.0004
 3088, 0.01360914238963329, 0.002729448850763078, 0.0004
 3089, 0.014046278513491023, 0.002729448850763078, 0.0004
 3090, 0.01446884928371882, 0.002729448850763078, 0.0004
 3091, 0.014877340017166027, 0.002729448850763078, 0.0004
 3092, 0.01527221985994901, 0.002729448850763078, 0.0004
 3093, 0.01565394232625917, 0.002729448850763078, 0.0004
 3094, 0.016022945819217888, 0.002729448850763078, 0.0004
 3095, 0.01637965413437663, 0.002729448850763078, 0.0004
 3096, 0.016724476946440418, 0.002729448850763078, 0.0004
 3097, 0.01705781027977375, 0.002729448850763078, 0.0004
 3109, 0.021057810279773766, 0.002729448850763078, 0.0004
 3110, 0.021391143613107098, 0.002729448850763078, 0.0004
 3111, 0.021735966425170887, 0.002729448850763078, 0.0004
 3112, 0.022092674740329627, 0.002729448850763078, 0.0004
 3113, 0.022461678233288346, 0.002729448850763078, 0.0004
 3114, 0.022843400699598504, 0.002729448850763078, 0.0004
 3115, 0.023238280542381487, 0.002729448850763078, 0.0004
 3116, 0.023646771275828694, 0.002729448850763078, 0.0004
 3117, 0.024069342046056492, 0.002729448850763078, 0.0004
 3118, 0.024506478169914223, 0.002729448850763078, 0.0004
 3119, 0.02495868169236409, 0.002729448850763078, 0.0004
 3120, 0.02542647196307303, 0.002729448850763078, 0.0004
 3121, 0.025910386232878845, 0.002729448850763078, 0.0004
 3122, 0.026410980270815558, 0.002729448850763078, 0.0004
 3123, 0.026928829002406673, 0.002729448850763078, 0.0004
 3124, 0.027464527169959417, 0.002729448850763078, 0.0004
 3125, 0.028018690015618287, 0.002729448850763078, 0.0004
 3126, 0.02859195398796238, 0.002729448850763078, 0.0004
 3127, 0.02918497747295802, 0.002729448850763078, 0.0004
 3128, 0.02979844155010622, 0.002729448850763078, 0.0004
 3129, 0.0304330507746533, 0.002729448850763078, 0.0004
 3130, 0.031089533986763136, 0.002729448850763078, 0.0004
 3131, 0.031768645148580285, 0.002729448850763078, 0.0004
 3132, 0.03247116421014538, 0.002729448850763078, 0.0004
 3133, 0.033197898005157246, 0.002729448850763078, 0.0004
 3134, 0.033949681177610595, 0.002729448850763078, 0.0004
 3135, 0.0347273771403734, 0.002729448850763078, 0.0004
 3136, 0.035531879066804974, 0.002729448850763078, 0.0004
 3137, 0.036364110916553595, 0.002729448850763078, 0.0004
 3138, 0.0372250284967117, 0.002729448850763078, 0.0004
 3139, 0.038115620559547515, 0.002729448850763078, 0.0004
 3140, 0.0, 0.0028805198855915044, 0.0004
 3141, 0.0008905920628358133, 0.0028805198855915044, 0.0004
 3142, 0.0017515096429939181, 0.0028805198855915044, 0.0004
 3143, 0.002583741492742537, 0.0028805198855915044, 0.0004
 3144, 0.0033882434191741147, 0.0028805198855915044, 0.0004
 3145, 0.004165939381936917, 0.0028805198855915044, 0.0004
 3146, 0.004917722554390265, 0.0028805198855915044, 0.0004
 3147, 0.005644456349402134, 0.0028805198855915044, 0.0004
 3148, 0.006346975410967226, 0.0028805198855915044, 0.0004
 3149, 0.007026086572784376, 0.0028805198855915044, 0.0004
 3150, 0.007682569784894212, 0.0028805198855915044, 0.0004
 3151, 0.008317179009441292, 0.0028805198855915044, 0.0004
 3152, 0.008930643086589493, 0.0028805198855915044, 0.0004
 3153, 0.009523666571585137, 0.0028805198855915044, 0.0004
 3154, 0.010096930543929227, 0.0028805198855915044, 0.0004
 3155, 0.010651093389588097, 0.0028805198855915044, 0.0004
 3156, 0.01118679155714084, 0.0028805198855915044, 0.0004
 3157, 0.011704640288731954, 0.0028805198855915044, 0.0004
 3158, 0.012205234326668665, 0.0028805198855915044, 0.0004
 3159, 0.012689148596474482, 0.0028805198855915044, 0.0004
 3160, 0.013156938867183424, 0.0028805198855915044, 0.0004
 3161, 0.01360914238963329, 0.0028805198855915044, 0.0004
 3162, 0.014046278513491023, 0.0028805198855915044, 0.0004
 3163, 0.01446884928371882, 0.0028805198855915044, 0.0004
 3164, 0.014877340017166027, 0.0028805198855915044, 0.0004
 3165, 0.01527221985994901, 0.0028805198855915044, 0.0004
 3166, 0.01565394232625917, 0.0028805198855915044, 0.0004
 3167, 0.016022945819217888, 0.0028805198855915044, 0.0004
 3168, 0.01637965413437663, 0.0028805198855915044, 0.0004
 3169, 0.016724476946440418, 0.0028805198855915044, 0.0004
 3170, 0.01705781027977375, 0.0028805198855915044, 0.0004
 3182, 0.021057810279773766, 0.0028805198855915044, 0.0004
 3183, 0.021391143613107098, 0.0028805198855915044, 0.0004
 3184, 0.021735966425170887, 0.0028805198855915044, 0.0004
 3185, 0.022092674740329627, 0.0028805198855915044, 0.0004
 3186, 0.022461678233288346, 0.0028805198855915044, 0.0004
 3187, 0.022843400699598504, 0.0028805198855915044, 0.0004
 3188, 0.023238280542381487, 0.0028805198855915044, 0.0004
 3189, 0.023646771275828694, 0.0028805198855915044, 0.0004
 3190, 0.024069342046056492, 0.0028805198855915044, 0.0004
 3191, 0.024506478169914223, 0.0028805198855915044, 0.0004
 3192, 0.02495868169236409, 0.0028805198855915044, 0.0004
 3193, 0.02542647196307303, 0.0028805198855915044, 0.0004
 3194, 0.025910386232878845, 0.0028805198855915044, 0.0004
 3195, 0.026410980270815558, 0.0028805198855915044, 0.0004
 3196, 0.026928829002406673, 0.0028805198855915044, 0.0004
 3197, 0.027464527169959417, 0.0028805198855915044, 0.0004
 3198, 0.028018690015618287, 0.0028805198855915044, 0.0004
 3199, 0.02859195398796238, 0.0028805198855915044, 0.0004
 3200, 0.02918497747295802, 0.0028805198855915044, 0.0004
 3201, 0.02979844155010622, 0.0028805198855915044, 0.0004
 3202, 0.0304330507746533, 0.0028805198855915044, 0.0004
 3203, 0.031089533986763136, 0.0028805198855915044, 0.0004
 3204, 0.031768645148580285, 0.0028805198855915044, 0.0004
 3205, 0.03247116421014538, 0.0028805198855915044, 0.0004
 3206, 0.033197898005157246, 0.0028805198855915044, 0.0004
 3207, 0.033949681177610595, 0.0028805198855915044, 0.0004
 3208, 0.0347273771403734, 0.0028805198855915044, 0.0004
 3209, 0.035531879066804974, 0.0028805198855915044, 0.0004
 3210, 0.036364110916553595, 0.0028805198855915044, 0.0004
 3211, 0.0372250284967117, 0.0028805198855915044, 0.0004
 3212, 0.038115620559547515, 0.0028805198855915044, 0.0004
 3213, 0.0, 0.0030133749950610224, 0.0004
 3214, 0.0008905920628358133, 0.0030133749950610224, 0.0004
 3215, 0.0017515096429939181, 0.0030133749950610224, 0.0004
 3216, 0.002583741492742537, 0.0030133749950610224, 0.0004
 3217, 0.0033882434191741147, 0.0030133749950610224, 0.0004
 3218, 0.004165939381936917, 0.0030133749950610224, 0.0004
 3219, 0.004917722554390265, 0.0030133749950610224, 0.0004
 3220, 0.005644456349402134, 0.0030133749950610224, 0.0004
 3221, 0.006346975410967226, 0.0030133749950610224, 0.0004
 3222, 0.007026086572784376, 0.0030133749950610224, 0.0004
 3223, 0.007682569784894212, 0.0030133749950610224, 0.0004
 3224, 0.008317179009441292, 0.0030133749950610224, 0.0004
 3225, 0.008930643086589493, 0.0030133749950610224, 0.0004
 3226, 0.009523666571585137, 0.0030133749950610224, 0.0004
 3227, 0.010096930543929227, 0.0030133749950610224, 0.0004
 3228, 0.010651093389588097, 0.0030133749950610224, 0.0004
 3229, 0.01118679155714084, 0.0030133749950610224, 0.0004
 3230, 0.011704640288731954, 0.0030133749950610224, 0.0004
 3231, 0.012205234326668665, 0.0030133749950610224, 0.0004
 3232, 0.012689148596474482, 0.0030133749950610224, 0.0004
 3233, 0.013156938867183424, 0.0030133749950610224, 0.0004
 3234, 0.01360914238963329, 0.0030133749950610224, 0.0004
 3235, 0.014046278513491023, 0.0030133749950610224, 0.0004
 3236, 0.01446884928371882, 0.0030133749950610224, 0.0004
 3237, 0.014877340017166027, 0.0030133749950610224, 0.0004
 3238, 0.01527221985994901, 0.0030133749950610224, 0.0004
 3239, 0.01565394232625917, 0.0030133749950610224, 0.0004
 3240, 0.016022945819217888, 0.0030133749950610224, 0.0004
 3241, 0.01637965413437663, 0.0030133749950610224, 0.0004
 3242, 0.016724476946440418, 0.0030133749950610224, 0.0004
 3243, 0.01705781027977375, 0.0030133749950610224, 0.0004
 3255, 0.021057810279773766, 0.0030133749950610224, 0.0004
 3256, 0.021391143613107098, 0.0030133749950610224, 0.0004
 3257, 0.021735966425170887, 0.0030133749950610224, 0.0004
 3258, 0.022092674740329627, 0.0030133749950610224, 0.0004
 3259, 0.022461678233288346, 0.0030133749950610224, 0.0004
 3260, 0.022843400699598504, 0.0030133749950610224, 0.0004
 3261, 0.023238280542381487, 0.0030133749950610224, 0.0004
 3262, 0.023646771275828694, 0.0030133749950610224, 0.0004
 3263, 0.024069342046056492, 0.0030133749950610224, 0.0004
 3264, 0.024506478169914223, 0.0030133749950610224, 0.0004
 3265, 0.02495868169236409, 0.0030133749950610224, 0.0004
 3266, 0.02542647196307303, 0.0030133749950610224, 0.0004
 3267, 0.025910386232878845, 0.0030133749950610224, 0.0004
 3268, 0.026410980270815558, 0.0030133749950610224, 0.0004
 3269, 0.026928829002406673, 0.0030133749950610224, 0.0004
 3270, 0.027464527169959417, 0.0030133749950610224, 0.0004
 3271, 0.028018690015618287, 0.0030133749950610224, 0.0004
 3272, 0.02859195398796238, 0.0030133749950610224, 0.0004
 3273, 0.02918497747295802, 0.0030133749950610224, 0.0004
 3274, 0.02979844155010622, 0.0030133749950610224, 0.0004
 3275, 0.0304330507746533, 0.0030133749950610224, 0.0004
 3276, 0.031089533986763136, 0.0030133749950610224, 0.0004
 3277, 0.031768645148580285, 0.0030133749950610224, 0.0004
 3278, 0.03247116421014538, 0.0030133749950610224, 0.0004
 3279, 0.033197898005157246, 0.0030133749950610224, 0.0004
 3280, 0.033949681177610595, 0.0030133749950610224, 0.0004
 3281, 0.0347273771403734, 0.0030133749950610224, 0.0004
 3282, 0.035531879066804974, 0.0030133749950610224, 0.0004
 3283, 0.036364110916553595, 0.0030133749950610224, 0.0004
 3284, 0.0372250284967117, 0.0030133749950610224, 0.0004
 3285, 0.038115620559547515, 0.0030133749950610224, 0.0004
 3286, 0.0, 0.0031302106289216327, 0.0004
 3287, 0.0008905920628358133, 0.0031302106289216327, 0.0004
 3288, 0.0017515096429939181, 0.0031302106289216327, 0.0004
 3289, 0.002583741492742537, 0.0031302106289216327, 0.0004
 3290, 0.0033882434191741147, 0.0031302106289216327, 0.0004
 3291, 0.004165939381936917, 0.0031302106289216327, 0.0004
 3292, 0.004917722554390265, 0.0031302106289216327, 0.0004
 3293, 0.005644456349402134, 0.0031302106289216327, 0.0004
 3294, 0.006346975410967226, 0.0031302106289216327, 0.0004
 3295, 0.007026086572784376, 0.0031302106289216327, 0.0004
 3296, 0.007682569784894212, 0.0031302106289216327, 0.0004
 3297, 0.008317179009441292, 0.0031302106289216327, 0.0004
 3298, 0.008930643086589493, 0.0031302106289216327, 0.0004
 3299, 0.009523666571585137, 0.0031302106289216327, 0.0004
 3300, 0.010096930543929227, 0.0031302106289216327, 0.0004
 3301, 0.010651093389588097, 0.0031302106289216327, 0.0004
 3302, 0.01118679155714084, 0.0031302106289216327, 0.0004
 3303, 0.011704640288731954, 0.0031302106289216327, 0.0004
 3304, 0.012205234326668665, 0.0031302106289216327, 0.0004
 3305, 0.012689148596474482, 0.0031302106289216327, 0.0004
 3306, 0.013156938867183424, 0.0031302106289216327, 0.0004
 3307, 0.01360914238963329, 0.0031302106289216327, 0.0004
 3308, 0.014046278513491023, 0.0031302106289216327, 0.0004
 3309, 0.01446884928371882, 0.0031302106289216327, 0.0004
 3310, 0.014877340017166027, 0.0031302106289216327, 0.0004
 3311, 0.01527221985994901, 0.0031302106289216327, 0.0004
 3312, 0.01565394232625917, 0.0031302106289216327, 0.0004
 3313, 0.016022945819217888, 0.0031302106289216327, 0.0004
 3314, 0.01637965413437663, 0.0031302106289216327, 0.0004
 3315, 0.016724476946440418, 0.0031302106289216327, 0.0004
 3316, 0.01705781027977375, 0.0031302106289216327, 0.0004
 3328, 0.021057810279773766, 0.0031302106289216327, 0.0004
 3329, 0.021391143613107098, 0.0031302106289216327, 0.0004
 3330, 0.021735966425170887, 0.0031302106289216327, 0.0004
 3331, 0.022092674740329627, 0.0031302106289216327, 0.0004
 3332, 0.022461678233288346, 0.0031302106289216327, 0.0004
 3333, 0.022843400699598504, 0.0031302106289216327, 0.0004
 3334, 0.023238280542381487, 0.0031302106289216327, 0.0004
 3335, 0.023646771275828694, 0.0031302106289216327, 0.0004
 3336, 0.024069342046056492, 0.0031302106289216327, 0.0004
 3337, 0.024506478169914223, 0.0031302106289216327, 0.0004
 3338, 0.02495868169236409, 0.0031302106289216327, 0.0004
 3339, 0.02542647196307303, 0.0031302106289216327, 0.0004
 3340, 0.025910386232878845, 0.0031302106289216327, 0.0004
 3341, 0.026410980270815558, 0.0031302106289216327, 0.0004
 3342, 0.026928829002406673, 0.0031302106289216327, 0.0004
 3343, 0.027464527169959417, 0.0031302106289216327, 0.0004
 3344, 0.028018690015618287, 0.0031302106289216327, 0.0004
 3345, 0.02859195398796238, 0.0031302106289216327, 0.0004
 3346, 0.02918497747295802, 0.0031302106289216327, 0.0004
 3347, 0.02979844155010622, 0.0031302106289216327, 0.0004
 3348, 0.0304330507746533, 0.0031302106289216327, 0.0004
 3349, 0.031089533986763136, 0.0031302106289216327, 0.0004
 3350, 0.031768645148580285, 0.0031302106289216327, 0.0004
 3351, 0.03247116421014538, 0.0031302106289216327, 0.0004
 3352, 0.033197898005157246, 0.0031302106289216327, 0.0004
 3353, 0.033949681177610595, 0.0031302106289216327, 0.0004
 3354, 0.0347273771403734, 0.0031302106289216327, 0.0004
 3355, 0.035531879066804974, 0.0031302106289216327, 0.0004
 3356, 0.036364110916553595, 0.0031302106289216327, 0.0004
 3357, 0.0372250284967117, 0.0031302106289216327, 0.0004
 3358, 0.038115620559547515, 0.0031302106289216327, 0.0004
 3359, 0.0, 0.0032329583922114037, 0.0004
 3360, 0.0008905920628358133, 0.0032329583922114037, 0.0004
 3361, 0.0017515096429939181, 0.0032329583922114037, 0.0004
 3362, 0.002583741492742537, 0.0032329583922114037, 0.0004
 3363, 0.0033882434191741147, 0.0032329583922114037, 0.0004
 3364, 0.004165939381936917, 0.0032329583922114037, 0.0004
 3365, 0.004917722554390265, 0.0032329583922114037, 0.0004
 3366, 0.005644456349402134, 0.0032329583922114037, 0.0004
 3367, 0.006346975410967226, 0.0032329583922114037, 0.0004
 3368, 0.007026086572784376, 0.0032329583922114037, 0.0004
 3369, 0.007682569784894212, 0.0032329583922114037, 0.0004
 3370, 0.008317179009441292, 0.0032329583922114037, 0.0004
 3371, 0.008930643086589493, 0.0032329583922114037, 0.0004
 3372, 0.009523666571585137, 0.0032329583922114037, 0.0004
 3373, 0.010096930543929227, 0.0032329583922114037, 0.0004
 3374, 0.010651093389588097, 0.0032329583922114037, 0.0004
 3375, 0.01118679155714084, 0.0032329583922114037, 0.0004
 3376, 0.011704640288731954, 0.0032329583922114037, 0.0004
 3377, 0.012205234326668665, 0.0032329583922114037, 0.0004
 3378, 0.012689148596474482, 0.0032329583922114037, 0.0004
 3379, 0.013156938867183424, 0.0032329583922114037, 0.0004
 3380, 0.01360914238963329, 0.0032329583922114037, 0.0004
 3381, 0.014046278513491023, 0.0032329583922114037, 0.0004
 3382, 0.01446884928371882, 0.0032329583922114037, 0.0004
 3383, 0.014877340017166027, 0.0032329583922114037, 0.0004
 3384, 0.01527221985994901, 0.0032329583922114037, 0.0004
 3385, 0.01565394232625917, 0.0032329583922114037, 0.0004
 3386, 0.016022945819217888, 0.0032329583922114037, 0.0004
 3387, 0.01637965413437663, 0.0032329583922114037, 0.0004
 3388, 0.016724476946440418, 0.0032329583922114037, 0.0004
 3389, 0.01705781027977375, 0.0032329583922114037, 0.0004
 3401, 0.021057810279773766, 0.0032329583922114037, 0.0004
 3402, 0.021391143613107098, 0.0032329583922114037, 0.0004
 3403, 0.021735966425170887, 0.0032329583922114037, 0.0004
 3404, 0.022092674740329627, 0.0032329583922114037, 0.0004
 3405, 0.022461678233288346, 0.0032329583922114037, 0.0004
 3406, 0.022843400699598504, 0.0032329583922114037, 0.0004
 3407, 0.023238280542381487, 0.0032329583922114037, 0.0004
 3408, 0.023646771275828694, 0.0032329583922114037, 0.0004
 3409, 0.024069342046056492, 0.0032329583922114037, 0.0004
 3410, 0.024506478169914223, 0.0032329583922114037, 0.0004
 3411, 0.02495868169236409, 0.0032329583922114037, 0.0004
 3412, 0.02542647196307303, 0.0032329583922114037, 0.0004
 3413, 0.025910386232878845, 0.0032329583922114037, 0.0004
 3414, 0.026410980270815558, 0.0032329583922114037, 0.0004
 3415, 0.026928829002406673, 0.0032329583922114037, 0.0004
 3416, 0.027464527169959417, 0.0032329583922114037, 0.0004
 3417, 0.028018690015618287, 0.0032329583922114037, 0.0004
 3418, 0.02859195398796238, 0.0032329583922114037, 0.0004
 3419, 0.02918497747295802, 0.0032329583922114037, 0.0004
 3420, 0.02979844155010622, 0.0032329583922114037, 0.0004
 3421, 0.0304330507746533, 0.0032329583922114037, 0.0004
 3422, 0.031089533986763136, 0.0032329583922114037, 0.0004
 3423, 0.031768645148580285, 0.0032329583922114037, 0.0004
 3424, 0.03247116421014538, 0.0032329583922114037, 0.0004
 3425, 0.033197898005157246, 0.0032329583922114037, 0.0004
 3426, 0.033949681177610595, 0.0032329583922114037, 0.0004
 3427, 0.0347273771403734, 0.0032329583922114037, 0.0004
 3428, 0.035531879066804974, 0.0032329583922114037, 0.0004
 3429, 0.036364110916553595, 0.0032329583922114037, 0.0004
 3430, 0.0372250284967117, 0.0032329583922114037, 0.0004
 3431, 0.038115620559547515, 0.0032329583922114037, 0.0004
 3432, 0.0, 0.0033233169798461133, 0.0004
 3433, 0.0008905920628358133, 0.0033233169798461133, 0.0004
 3434, 0.0017515096429939181, 0.0033233169798461133, 0.0004
 3435, 0.002583741492742537, 0.0033233169798461133, 0.0004
 3436, 0.0033882434191741147, 0.0033233169798461133, 0.0004
 3437, 0.004165939381936917, 0.0033233169798461133, 0.0004
 3438, 0.004917722554390265, 0.0033233169798461133, 0.0004
 3439, 0.005644456349402134, 0.0033233169798461133, 0.0004
 3440, 0.006346975410967226, 0.0033233169798461133, 0.0004
 3441, 0.007026086572784376, 0.0033233169798461133, 0.0004
 3442, 0.007682569784894212, 0.0033233169798461133, 0.0004
 3443, 0.008317179009441292, 0.0033233169798461133, 0.0004
 3444, 0.008930643086589493, 0.0033233169798461133, 0.0004
 3445, 0.009523666571585137, 0.0033233169798461133, 0.0004
 3446, 0.010096930543929227, 0.0033233169798461133, 0.0004
 3447, 0.010651093389588097, 0.0033233169798461133, 0.0004
 3448, 0.01118679155714084, 0.0033233169798461133, 0.0004
 3449, 0.011704640288731954, 0.0033233169798461133, 0.0004
 3450, 0.012205234326668665, 0.0033233169798461133, 0.0004
 3451, 0.012689148596474482, 0.0033233169798461133, 0.0004
 3452, 0.013156938867183424, 0.0033233169798461133, 0.0004
 3453, 0.01360914238963329, 0.0033233169798461133, 0.0004
 3454, 0.014046278513491023, 0.0033233169798461133, 0.0004
 3455, 0.01446884928371882, 0.0033233169798461133, 0.0004
 3456, 0.014877340017166027, 0.0033233169798461133, 0.0004
 3457, 0.01527221985994901, 0.0033233169798461133, 0.0004
 3458, 0.01565394232625917, 0.0033233169798461133, 0.0004
 3459, 0.016022945819217888, 0.0033233169798461133, 0.0004
 3460, 0.01637965413437663, 0.0033233169798461133, 0.0004
 3461, 0.016724476946440418, 0.0033233169798461133, 0.0004
 3462, 0.01705781027977375, 0.0033233169798461133, 0.0004
 3474, 0.021057810279773766, 0.0033233169798461133, 0.0004
 3475, 0.021391143613107098, 0.0033233169798461133, 0.0004
 3476, 0.021735966425170887, 0.0033233169798461133, 0.0004
 3477, 0.022092674740329627, 0.0033233169798461133, 0.0004
 3478, 0.022461678233288346, 0.0033233169798461133, 0.0004
 3479, 0.022843400699598504, 0.0033233169798461133, 0.0004
 3480, 0.023238280542381487, 0.0033233169798461133, 0.0004
 3481, 0.023646771275828694, 0.0033233169798461133, 0.0004
 3482, 0.024069342046056492, 0.0033233169798461133, 0.0004
 3483, 0.024506478169914223, 0.0033233169798461133, 0.0004
 3484, 0.02495868169236409, 0.0033233169798461133, 0.0004
 3485, 0.02542647196307303, 0.0033233169798461133, 0.0004
 3486, 0.025910386232878845, 0.0033233169798461133, 0.0004
 3487, 0.026410980270815558, 0.0033233169798461133, 0.0004
 3488, 0.026928829002406673, 0.0033233169798461133, 0.0004
 3489, 0.027464527169959417, 0.0033233169798461133, 0.0004
 3490, 0.028018690015618287, 0.0033233169798461133, 0.0004
 3491, 0.02859195398796238, 0.0033233169798461133, 0.0004
 3492, 0.02918497747295802, 0.0033233169798461133, 0.0004
 3493, 0.02979844155010622, 0.0033233169798461133, 0.0004
 3494, 0.0304330507746533, 0.0033233169798461133, 0.0004
 3495, 0.031089533986763136, 0.0033233169798461133, 0.0004
 3496, 0.031768645148580285, 0.0033233169798461133, 0.0004
 3497, 0.03247116421014538, 0.0033233169798461133, 0.0004
 3498, 0.033197898005157246, 0.0033233169798461133, 0.0004
 3499, 0.033949681177610595, 0.0033233169798461133, 0.0004
 3500, 0.0347273771403734, 0.0033233169798461133, 0.0004
 3501, 0.035531879066804974, 0.0033233169798461133, 0.0004
 3502, 0.036364110916553595, 0.0033233169798461133, 0.0004
 3503, 0.0372250284967117, 0.0033233169798461133, 0.0004
 3504, 0.038115620559547515, 0.0033233169798461133, 0.0004
 3505, 0.0, 0.0034027802605825835, 0.0004
 3506, 0.0008905920628358133, 0.0034027802605825835, 0.0004
 3507, 0.0017515096429939181, 0.0034027802605825835, 0.0004
 3508, 0.002583741492742537, 0.0034027802605825835, 0.0004
 3509, 0.0033882434191741147, 0.0034027802605825835, 0.0004
 3510, 0.004165939381936917, 0.0034027802605825835, 0.0004
 3511, 0.004917722554390265, 0.0034027802605825835, 0.0004
 3512, 0.005644456349402134, 0.0034027802605825835, 0.0004
 3513, 0.006346975410967226, 0.0034027802605825835, 0.0004
 3514, 0.007026086572784376, 0.0034027802605825835, 0.0004
 3515, 0.007682569784894212, 0.0034027802605825835, 0.0004
 3516, 0.008317179009441292, 0.0034027802605825835, 0.0004
 3517, 0.008930643086589493, 0.0034027802605825835, 0.0004
 3518, 0.009523666571585137, 0.0034027802605825835, 0.0004
 3519, 0.010096930543929227, 0.0034027802605825835, 0.0004
 3520, 0.010651093389588097, 0.0034027802605825835, 0.0004
 3521, 0.01118679155714084, 0.0034027802605825835, 0.0004
 3522, 0.011704640288731954, 0.0034027802605825835, 0.0004
 3523, 0.012205234326668665, 0.0034027802605825835, 0.0004
 3524, 0.012689148596474482, 0.0034027802605825835, 0.0004
 3525, 0.013156938867183424, 0.0034027802605825835, 0.0004
 3526, 0.01360914238963329, 0.0034027802605825835, 0.0004
 3527, 0.014046278513491023, 0.0034027802605825835, 0.0004
 3528, 0.01446884928371882, 0.0034027802605825835, 0.0004
 3529, 0.014877340017166027, 0.0034027802605825835, 0.0004
 3530, 0.01527221985994901, 0.0034027802605825835, 0.0004
 3531, 0.01565394232625917, 0.0034027802605825835, 0.0004
 3532, 0.016022945819217888, 0.0034027802605825835, 0.0004
 3533, 0.01637965413437663, 0.0034027802605825835, 0.0004
 3534, 0.016724476946440418, 0.0034027802605825835, 0.0004
 3535, 0.01705781027977375, 0.0034027802605825835, 0.0004
 3547, 0.021057810279773766, 0.0034027802605825835, 0.0004
 3548, 0.021391143613107098, 0.0034027802605825835, 0.0004
 3549, 0.021735966425170887, 0.0034027802605825835, 0.0004
 3550, 0.022092674740329627, 0.0034027802605825835, 0.0004
 3551, 0.022461678233288346, 0.0034027802605825835, 0.0004
 3552, 0.022843400699598504, 0.0034027802605825835, 0.0004
 3553, 0.023238280542381487, 0.0034027802605825835, 0.0004
 3554, 0.023646771275828694, 0.0034027802605825835, 0.0004
 3555, 0.024069342046056492, 0.0034027802605825835, 0.0004
 3556, 0.024506478169914223, 0.0034027802605825835, 0.0004
 3557, 0.02495868169236409, 0.0034027802605825835, 0.0004
 3558, 0.02542647196307303, 0.0034027802605825835, 0.0004
 3559, 0.025910386232878845, 0.0034027802605825835, 0.0004
 3560, 0.026410980270815558, 0.0034027802605825835, 0.0004
 3561, 0.026928829002406673, 0.0034027802605825835, 0.0004
 3562, 0.027464527169959417, 0.0034027802605825835, 0.0004
 3563, 0.028018690015618287, 0.0034027802605825835, 0.0004
 3564, 0.02859195398796238, 0.0034027802605825835, 0.0004
 3565, 0.02918497747295802, 0.0034027802605825835, 0.0004
 3566, 0.02979844155010622, 0.0034027802605825835, 0.0004
 3567, 0.0304330507746533, 0.0034027802605825835, 0.0004
 3568, 0.031089533986763136, 0.0034027802605825835, 0.0004
 3569, 0.031768645148580285, 0.0034027802605825835, 0.0004
 3570, 0.03247116421014538, 0.0034027802605825835, 0.0004
 3571, 0.033197898005157246, 0.0034027802605825835, 0.0004
 3572, 0.033949681177610595, 0.0034027802605825835, 0.0004
 3573, 0.0347273771403734, 0.0034027802605825835, 0.0004
 3574, 0.035531879066804974, 0.0034027802605825835, 0.0004
 3575, 0.036364110916553595, 0.0034027802605825835, 0.0004
 3576, 0.0372250284967117, 0.0034027802605825835, 0.0004
 3577, 0.038115620559547515, 0.0034027802605825835, 0.0004
 3578, 0.0, 0.0034726619746586183, 0.0004
 3579, 0.0008905920628358133, 0.0034726619746586183, 0.0004
 3580, 0.0017515096429939181, 0.0034726619746586183, 0.0004
 3581, 0.002583741492742537, 0.0034726619746586183, 0.0004
 3582, 0.0033882434191741147, 0.0034726619746586183, 0.0004
 3583, 0.004165939381936917, 0.0034726619746586183, 0.0004
 3584, 0.004917722554390265, 0.0034726619746586183, 0.0004
 3585, 0.005644456349402134, 0.0034726619746586183, 0.0004
 3586, 0.006346975410967226, 0.0034726619746586183, 0.0004
 3587, 0.007026086572784376, 0.0034726619746586183, 0.0004
 3588, 0.007682569784894212, 0.0034726619746586183, 0.0004
 3589, 0.008317179009441292, 0.0034726619746586183, 0.0004
 3590, 0.008930643086589493, 0.0034726619746586183, 0.0004
 3591, 0.009523666571585137, 0.0034726619746586183, 0.0004
 3592, 0.010096930543929227, 0.0034726619746586183, 0.0004
 3593, 0.010651093389588097, 0.0034726619746586183, 0.0004
 3594, 0.01118679155714084, 0.0034726619746586183, 0.0004
 3595, 0.011704640288731954, 0.0034726619746586183, 0.0004
 3596, 0.012205234326668665, 0.0034726619746586183, 0.0004
 3597, 0.012689148596474482, 0.0034726619746586183, 0.0004
 3598, 0.013156938867183424, 0.0034726619746586183, 0.0004
 3599, 0.01360914238963329, 0.0034726619746586183, 0.0004
 3600, 0.014046278513491023, 0.0034726619746586183, 0.0004
 3601, 0.01446884928371882, 0.0034726619746586183, 0.0004
 3602, 0.014877340017166027, 0.0034726619746586183, 0.0004
 3603, 0.01527221985994901, 0.0034726619746586183, 0.0004
 3604, 0.01565394232625917, 0.0034726619746586183, 0.0004
 3605, 0.016022945819217888, 0.0034726619746586183, 0.0004
 3606, 0.01637965413437663, 0.0034726619746586183, 0.0004
 3607, 0.016724476946440418, 0.0034726619746586183, 0.0004
 3608, 0.01705781027977375, 0.0034726619746586183, 0.0004
 3620, 0.021057810279773766, 0.0034726619746586183, 0.0004
 3621, 0.021391143613107098, 0.0034726619746586183, 0.0004
 3622, 0.021735966425170887, 0.0034726619746586183, 0.0004
 3623, 0.022092674740329627, 0.0034726619746586183, 0.0004
 3624, 0.022461678233288346, 0.0034726619746586183, 0.0004
 3625, 0.022843400699598504, 0.0034726619746586183, 0.0004
 3626, 0.023238280542381487, 0.0034726619746586183, 0.0004
 3627, 0.023646771275828694, 0.0034726619746586183, 0.0004
 3628, 0.024069342046056492, 0.0034726619746586183, 0.0004
 3629, 0.024506478169914223, 0.0034726619746586183, 0.0004
 3630, 0.02495868169236409, 0.0034726619746586183, 0.0004
 3631, 0.02542647196307303, 0.0034726619746586183, 0.0004
 3632, 0.025910386232878845, 0.0034726619746586183, 0.0004
 3633, 0.026410980270815558, 0.0034726619746586183, 0.0004
 3634, 0.026928829002406673, 0.0034726619746586183, 0.0004
 3635, 0.027464527169959417, 0.0034726619746586183, 0.0004
 3636, 0.028018690015618287, 0.0034726619746586183, 0.0004
 3637, 0.02859195398796238, 0.0034726619746586183, 0.0004
 3638, 0.02918497747295802, 0.0034726619746586183, 0.0004
 3639, 0.02979844155010622, 0.0034726619746586183, 0.0004
 3640, 0.0304330507746533, 0.0034726619746586183, 0.0004
 3641, 0.031089533986763136, 0.0034726619746586183, 0.0004
 3642, 0.031768645148580285, 0.0034726619746586183, 0.0004
 3643, 0.03247116421014538, 0.0034726619746586183, 0.0004
 3644, 0.033197898005157246, 0.0034726619746586183, 0.0004
 3645, 0.033949681177610595, 0.0034726619746586183, 0.0004
 3646, 0.0347273771403734, 0.0034726619746586183, 0.0004
 3647, 0.035531879066804974, 0.0034726619746586183, 0.0004
 3648, 0.036364110916553595, 0.0034726619746586183, 0.0004
 3649, 0.0372250284967117, 0.0034726619746586183, 0.0004
 3650, 0.038115620559547515, 0.0034726619746586183, 0.0004
 3651, 0.0, 0.0035341174534274855, 0.0004
 3652, 0.0008905920628358133, 0.0035341174534274855, 0.0004
 3653, 0.0017515096429939181, 0.0035341174534274855, 0.0004
 3654, 0.002583741492742537, 0.0035341174534274855, 0.0004
 3655, 0.0033882434191741147, 0.0035341174534274855, 0.0004
 3656, 0.004165939381936917, 0.0035341174534274855, 0.0004
 3657, 0.004917722554390265, 0.0035341174534274855, 0.0004
 3658, 0.005644456349402134, 0.0035341174534274855, 0.0004
 3659, 0.006346975410967226, 0.0035341174534274855, 0.0004
 3660, 0.007026086572784376, 0.0035341174534274855, 0.0004
 3661, 0.007682569784894212, 0.0035341174534274855, 0.0004
 3662, 0.008317179009441292, 0.0035341174534274855, 0.0004
 3663, 0.008930643086589493, 0.0035341174534274855, 0.0004
 3664, 0.009523666571585137, 0.0035341174534274855, 0.0004
 3665, 0.010096930543929227, 0.0035341174534274855, 0.0004
 3666, 0.010651093389588097, 0.0035341174534274855, 0.0004
 3667, 0.01118679155714084, 0.0035341174534274855, 0.0004
 3668, 0.011704640288731954, 0.0035341174534274855, 0.0004
 3669, 0.012205234326668665, 0.0035341174534274855, 0.0004
 3670, 0.012689148596474482, 0.0035341174534274855, 0.0004
 3671, 0.013156938867183424, 0.0035341174534274855, 0.0004
 3672, 0.01360914238963329, 0.0035341174534274855, 0.0004
 3673, 0.014046278513491023, 0.0035341174534274855, 0.0004
 3674, 0.01446884928371882, 0.0035341174534274855, 0.0004
 3675, 0.014877340017166027, 0.0035341174534274855, 0.0004
 3676, 0.01527221985994901, 0.0035341174534274855, 0.0004
 3677, 0.01565394232625917, 0.0035341174534274855, 0.0004
 3678, 0.016022945819217888, 0.0035341174534274855, 0.0004
 3679, 0.01637965413437663, 0.0035341174534274855, 0.0004
 3680, 0.016724476946440418, 0.0035341174534274855, 0.0004
 3681, 0.01705781027977375, 0.0035341174534274855, 0.0004
 3693, 0.021057810279773766, 0.0035341174534274855, 0.0004
 3694, 0.021391143613107098, 0.0035341174534274855, 0.0004
 3695, 0.021735966425170887, 0.0035341174534274855, 0.0004
 3696, 0.022092674740329627, 0.0035341174534274855, 0.0004
 3697, 0.022461678233288346, 0.0035341174534274855, 0.0004
 3698, 0.022843400699598504, 0.0035341174534274855, 0.0004
 3699, 0.023238280542381487, 0.0035341174534274855, 0.0004
 3700, 0.023646771275828694, 0.0035341174534274855, 0.0004
 3701, 0.024069342046056492, 0.0035341174534274855, 0.0004
 3702, 0.024506478169914223, 0.0035341174534274855, 0.0004
 3703, 0.02495868169236409, 0.0035341174534274855, 0.0004
 3704, 0.02542647196307303, 0.0035341174534274855, 0.0004
 3705, 0.025910386232878845, 0.0035341174534274855, 0.0004
 3706, 0.026410980270815558, 0.0035341174534274855, 0.0004
 3707, 0.026928829002406673, 0.0035341174534274855, 0.0004
 3708, 0.027464527169959417, 0.0035341174534274855, 0.0004
 3709, 0.028018690015618287, 0.0035341174534274855, 0.0004
 3710, 0.02859195398796238, 0.0035341174534274855, 0.0004
 3711, 0.02918497747295802, 0.0035341174534274855, 0.0004
 3712, 0.02979844155010622, 0.0035341174534274855, 0.0004
 3713, 0.0304330507746533, 0.0035341174534274855, 0.0004
 3714, 0.031089533986763136, 0.0035341174534274855, 0.0004
 3715, 0.031768645148580285, 0.0035341174534274855, 0.0004
 3716, 0.03247116421014538, 0.0035341174534274855, 0.0004
 3717, 0.033197898005157246, 0.0035341174534274855, 0.0004
 3718, 0.033949681177610595, 0.0035341174534274855, 0.0004
 3719, 0.0347273771403734, 0.0035341174534274855, 0.0004
 3720, 0.035531879066804974, 0.0035341174534274855, 0.0004
 3721, 0.036364110916553595, 0.0035341174534274855, 0.0004
 3722, 0.0372250284967117, 0.0035341174534274855, 0.0004
 3723, 0.038115620559547515, 0.0035341174534274855, 0.0004
 3724, 0.0, 0.0035881627200705065, 0.0004
 3725, 0.0008905920628358133, 0.0035881627200705065, 0.0004
 3726, 0.0017515096429939181, 0.0035881627200705065, 0.0004
 3727, 0.002583741492742537, 0.0035881627200705065, 0.0004
 3728, 0.0033882434191741147, 0.0035881627200705065, 0.0004
 3729, 0.004165939381936917, 0.0035881627200705065, 0.0004
 3730, 0.004917722554390265, 0.0035881627200705065, 0.0004
 3731, 0.005644456349402134, 0.0035881627200705065, 0.0004
 3732, 0.006346975410967226, 0.0035881627200705065, 0.0004
 3733, 0.007026086572784376, 0.0035881627200705065, 0.0004
 3734, 0.007682569784894212, 0.0035881627200705065, 0.0004
 3735, 0.008317179009441292, 0.0035881627200705065, 0.0004
 3736, 0.008930643086589493, 0.0035881627200705065, 0.0004
 3737, 0.009523666571585137, 0.0035881627200705065, 0.0004
 3738, 0.010096930543929227, 0.0035881627200705065, 0.0004
 3739, 0.010651093389588097, 0.0035881627200705065, 0.0004
 3740, 0.01118679155714084, 0.0035881627200705065, 0.0004
 3741, 0.011704640288731954, 0.0035881627200705065, 0.0004
 3742, 0.012205234326668665, 0.0035881627200705065, 0.0004
 3743, 0.012689148596474482, 0.0035881627200705065, 0.0004
 3744, 0.013156938867183424, 0.0035881627200705065, 0.0004
 3745, 0.01360914238963329, 0.0035881627200705065, 0.0004
 3746, 0.014046278513491023, 0.0035881627200705065, 0.0004
 3747, 0.01446884928371882, 0.0035881627200705065, 0.0004
 3748, 0.014877340017166027, 0.0035881627200705065, 0.0004
 3749, 0.01527221985994901, 0.0035881627200705065, 0.0004
 3750, 0.01565394232625917, 0.0035881627200705065, 0.0004
 3751, 0.016022945819217888, 0.0035881627200705065, 0.0004
 3752, 0.01637965413437663, 0.0035881627200705065, 0.0004
 3753, 0.016724476946440418, 0.0035881627200705065, 0.0004
 3754, 0.01705781027977375, 0.0035881627200705065, 0.0004
 3766, 0.021057810279773766, 0.0035881627200705065, 0.0004
 3767, 0.021391143613107098, 0.0035881627200705065, 0.0004
 3768, 0.021735966425170887, 0.0035881627200705065, 0.0004
 3769, 0.022092674740329627, 0.0035881627200705065, 0.0004
 3770, 0.022461678233288346, 0.0035881627200705065, 0.0004
 3771, 0.022843400699598504, 0.0035881627200705065, 0.0004
 3772, 0.023238280542381487, 0.0035881627200705065, 0.0004
 3773, 0.023646771275828694, 0.0035881627200705065, 0.0004
 3774, 0.024069342046056492, 0.0035881627200705065, 0.0004
 3775, 0.024506478169914223, 0.0035881627200705065, 0.0004
 3776, 0.02495868169236409, 0.0035881627200705065, 0.0004
 3777, 0.02542647196307303, 0.0035881627200705065, 0.0004
 3778, 0.025910386232878845, 0.0035881627200705065, 0.0004
 3779, 0.026410980270815558, 0.0035881627200705065, 0.0004
 3780, 0.026928829002406673, 0.0035881627200705065, 0.0004
 3781, 0.027464527169959417, 0.0035881627200705065, 0.0004
 3782, 0.028018690015618287, 0.0035881627200705065, 0.0004
 3783, 0.02859195398796238, 0.0035881627200705065, 0.0004
 3784, 0.02918497747295802, 0.0035881627200705065, 0.0004
 3785, 0.02979844155010622, 0.0035881627200705065, 0.0004
 3786, 0.0304330507746533, 0.0035881627200705065, 0.0004
 3787, 0.031089533986763136, 0.0035881627200705065, 0.0004
 3788, 0.031768645148580285, 0.0035881627200705065, 0.0004
 3789, 0.03247116421014538, 0.0035881627200705065, 0.0004
 3790, 0.033197898005157246, 0.0035881627200705065, 0.0004
 3791, 0.033949681177610595, 0.0035881627200705065, 0.0004
 3792, 0.0347273771403734, 0.0035881627200705065, 0.0004
 3793, 0.035531879066804974, 0.0035881627200705065, 0.0004
 3794, 0.036364110916553595, 0.0035881627200705065, 0.0004
 3795, 0.0372250284967117, 0.0035881627200705065, 0.0004
 3796, 0.038115620559547515, 0.0035881627200705065, 0.0004
 3797, 0.0, 0.003635691287173542, 0.0004
 3798, 0.0008905920628358133, 0.003635691287173542, 0.0004
 3799, 0.0017515096429939181, 0.003635691287173542, 0.0004
 3800, 0.002583741492742537, 0.003635691287173542, 0.0004
 3801, 0.0033882434191741147, 0.003635691287173542, 0.0004
 3802, 0.004165939381936917, 0.003635691287173542, 0.0004
 3803, 0.004917722554390265, 0.003635691287173542, 0.0004
 3804, 0.005644456349402134, 0.003635691287173542, 0.0004
 3805, 0.006346975410967226, 0.003635691287173542, 0.0004
 3806, 0.007026086572784376, 0.003635691287173542, 0.0004
 3807, 0.007682569784894212, 0.003635691287173542, 0.0004
 3808, 0.008317179009441292, 0.003635691287173542, 0.0004
 3809, 0.008930643086589493, 0.003635691287173542, 0.0004
 3810, 0.009523666571585137, 0.003635691287173542, 0.0004
 3811, 0.010096930543929227, 0.003635691287173542, 0.0004
 3812, 0.010651093389588097, 0.003635691287173542, 0.0004
 3813, 0.01118679155714084, 0.003635691287173542, 0.0004
 3814, 0.011704640288731954, 0.003635691287173542, 0.0004
 3815, 0.012205234326668665, 0.003635691287173542, 0.0004
 3816, 0.012689148596474482, 0.003635691287173542, 0.0004
 3817, 0.013156938867183424, 0.003635691287173542, 0.0004
 3818, 0.01360914238963329, 0.003635691287173542, 0.0004
 3819, 0.014046278513491023, 0.003635691287173542, 0.0004
 3820, 0.01446884928371882, 0.003635691287173542, 0.0004
 3821, 0.014877340017166027, 0.003635691287173542, 0.0004
 3822, 0.01527221985994901, 0.003635691287173542, 0.0004
 3823, 0.01565394232625917, 0.003635691287173542, 0.0004
 3824, 0.016022945819217888, 0.003635691287173542, 0.0004
 3825, 0.01637965413437663, 0.003635691287173542, 0.0004
 3826, 0.016724476946440418, 0.003635691287173542, 0.0004
 3827, 0.01705781027977375, 0.003635691287173542, 0.0004
 3839, 0.021057810279773766, 0.003635691287173542, 0.0004
 3840, 0.021391143613107098, 0.003635691287173542, 0.0004
 3841, 0.021735966425170887, 0.003635691287173542, 0.0004
 3842, 0.022092674740329627, 0.003635691287173542, 0.0004
 3843, 0.022461678233288346, 0.003635691287173542, 0.0004
 3844, 0.022843400699598504, 0.003635691287173542, 0.0004
 3845, 0.023238280542381487, 0.003635691287173542, 0.0004
 3846, 0.023646771275828694, 0.003635691287173542, 0.0004
 3847, 0.024069342046056492, 0.003635691287173542, 0.0004
 3848, 0.024506478169914223, 0.003635691287173542, 0.0004
 3849, 0.02495868169236409, 0.003635691287173542, 0.0004
 3850, 0.02542647196307303, 0.003635691287173542, 0.0004
 3851, 0.025910386232878845, 0.003635691287173542, 0.0004
 3852, 0.026410980270815558, 0.003635691287173542, 0.0004
 3853, 0.026928829002406673, 0.003635691287173542, 0.0004
 3854, 0.027464527169959417, 0.003635691287173542, 0.0004
 3855, 0.028018690015618287, 0.003635691287173542, 0.0004
 3856, 0.02859195398796238, 0.003635691287173542, 0.0004
 3857, 0.02918497747295802, 0.003635691287173542, 0.0004
 3858, 0.02979844155010622, 0.003635691287173542, 0.0004
 3859, 0.0304330507746533, 0.003635691287173542, 0.0004
 3860, 0.031089533986763136, 0.003635691287173542, 0.0004
 3861, 0.031768645148580285, 0.003635691287173542, 0.0004
 3862, 0.03247116421014538, 0.003635691287173542, 0.0004
 3863, 0.033197898005157246, 0.003635691287173542, 0.0004
 3864, 0.033949681177610595, 0.003635691287173542, 0.0004
 3865, 0.0347273771403734, 0.003635691287173542, 0.0004
 3866, 0.035531879066804974, 0.003635691287173542, 0.0004
 3867, 0.036364110916553595, 0.003635691287173542, 0.0004
 3868, 0.0372250284967117, 0.003635691287173542, 0.0004
 3869, 0.038115620559547515, 0.003635691287173542, 0.0004
 3870, 0.0, 0.003677488928876165, 0.0004
 3871, 0.0008905920628358133, 0.003677488928876165, 0.0004
 3872, 0.0017515096429939181, 0.003677488928876165, 0.0004
 3873, 0.002583741492742537, 0.003677488928876165, 0.0004
 3874, 0.0033882434191741147, 0.003677488928876165, 0.0004
 3875, 0.004165939381936917, 0.003677488928876165, 0.0004
 3876, 0.004917722554390265, 0.003677488928876165, 0.0004
 3877, 0.005644456349402134, 0.003677488928876165, 0.0004
 3878, 0.006346975410967226, 0.003677488928876165, 0.0004
 3879, 0.007026086572784376, 0.003677488928876165, 0.0004
 3880, 0.007682569784894212, 0.003677488928876165, 0.0004
 3881, 0.008317179009441292, 0.003677488928876165, 0.0004
 3882, 0.008930643086589493, 0.003677488928876165, 0.0004
 3883, 0.009523666571585137, 0.003677488928876165, 0.0004
 3884, 0.010096930543929227, 0.003677488928876165, 0.0004
 3885, 0.010651093389588097, 0.003677488928876165, 0.0004
 3886, 0.01118679155714084, 0.003677488928876165, 0.0004
 3887, 0.011704640288731954, 0.003677488928876165, 0.0004
 3888, 0.012205234326668665, 0.003677488928876165, 0.0004
 3889, 0.012689148596474482, 0.003677488928876165, 0.0004
 3890, 0.013156938867183424, 0.003677488928876165, 0.0004
 3891, 0.01360914238963329, 0.003677488928876165, 0.0004
 3892, 0.014046278513491023, 0.003677488928876165, 0.0004
 3893, 0.01446884928371882, 0.003677488928876165, 0.0004
 3894, 0.014877340017166027, 0.003677488928876165, 0.0004
 3895, 0.01527221985994901, 0.003677488928876165, 0.0004
 3896, 0.01565394232625917, 0.003677488928876165, 0.0004
 3897, 0.016022945819217888, 0.003677488928876165, 0.0004
 3898, 0.01637965413437663, 0.003677488928876165, 0.0004
 3899, 0.016724476946440418, 0.003677488928876165, 0.0004
 3900, 0.01705781027977375, 0.003677488928876165, 0.0004
 3912, 0.021057810279773766, 0.003677488928876165, 0.0004
 3913, 0.021391143613107098, 0.003677488928876165, 0.0004
 3914, 0.021735966425170887, 0.003677488928876165, 0.0004
 3915, 0.022092674740329627, 0.003677488928876165, 0.0004
 3916, 0.022461678233288346, 0.003677488928876165, 0.0004
 3917, 0.022843400699598504, 0.003677488928876165, 0.0004
 3918, 0.023238280542381487, 0.003677488928876165, 0.0004
 3919, 0.023646771275828694, 0.003677488928876165, 0.0004
 3920, 0.024069342046056492, 0.003677488928876165, 0.0004
 3921, 0.024506478169914223, 0.003677488928876165, 0.0004
 3922, 0.02495868169236409, 0.003677488928876165, 0.0004
 3923, 0.02542647196307303, 0.003677488928876165, 0.0004
 3924, 0.025910386232878845, 0.003677488928876165, 0.0004
 3925, 0.026410980270815558, 0.003677488928876165, 0.0004
 3926, 0.026928829002406673, 0.003677488928876165, 0.0004
 3927, 0.027464527169959417, 0.003677488928876165, 0.0004
 3928, 0.028018690015618287, 0.003677488928876165, 0.0004
 3929, 0.02859195398796238, 0.003677488928876165, 0.0004
 3930, 0.02918497747295802, 0.003677488928876165, 0.0004
 3931, 0.02979844155010622, 0.003677488928876165, 0.0004
 3932, 0.0304330507746533, 0.003677488928876165, 0.0004
 3933, 0.031089533986763136, 0.003677488928876165, 0.0004
 3934, 0.031768645148580285, 0.003677488928876165, 0.0004
 3935, 0.03247116421014538, 0.003677488928876165, 0.0004
 3936, 0.033197898005157246, 0.003677488928876165, 0.0004
 3937, 0.033949681177610595, 0.003677488928876165, 0.0004
 3938, 0.0347273771403734, 0.003677488928876165, 0.0004
 3939, 0.035531879066804974, 0.003677488928876165, 0.0004
 3940, 0.036364110916553595, 0.003677488928876165, 0.0004
 3941, 0.0372250284967117, 0.003677488928876165, 0.0004
 3942, 0.038115620559547515, 0.003677488928876165, 0.0004
 3943, 0.0, 0.0037142466718166054, 0.0004
 3944, 0.0008905920628358133, 0.0037142466718166054, 0.0004
 3945, 0.0017515096429939181, 0.0037142466718166054, 0.0004
 3946, 0.002583741492742537, 0.0037142466718166054, 0.0004
 3947, 0.0033882434191741147, 0.0037142466718166054, 0.0004
 3948, 0.004165939381936917, 0.0037142466718166054, 0.0004
 3949, 0.004917722554390265, 0.0037142466718166054, 0.0004
 3950, 0.005644456349402134, 0.0037142466718166054, 0.0004
 3951, 0.006346975410967226, 0.0037142466718166054, 0.0004
 3952, 0.007026086572784376, 0.0037142466718166054, 0.0004
 3953, 0.007682569784894212, 0.0037142466718166054, 0.0004
 3954, 0.008317179009441292, 0.0037142466718166054, 0.0004
 3955, 0.008930643086589493, 0.0037142466718166054, 0.0004
 3956, 0.009523666571585137, 0.0037142466718166054, 0.0004
 3957, 0.010096930543929227, 0.0037142466718166054, 0.0004
 3958, 0.010651093389588097, 0.0037142466718166054, 0.0004
 3959, 0.01118679155714084, 0.0037142466718166054, 0.0004
 3960, 0.011704640288731954, 0.0037142466718166054, 0.0004
 3961, 0.012205234326668665, 0.0037142466718166054, 0.0004
 3962, 0.012689148596474482, 0.0037142466718166054, 0.0004
 3963, 0.013156938867183424, 0.0037142466718166054, 0.0004
 3964, 0.01360914238963329, 0.0037142466718166054, 0.0004
 3965, 0.014046278513491023, 0.0037142466718166054, 0.0004
 3966, 0.01446884928371882, 0.0037142466718166054, 0.0004
 3967, 0.014877340017166027, 0.0037142466718166054, 0.0004
 3968, 0.01527221985994901, 0.0037142466718166054, 0.0004
 3969, 0.01565394232625917, 0.0037142466718166054, 0.0004
 3970, 0.016022945819217888, 0.0037142466718166054, 0.0004
 3971, 0.01637965413437663, 0.0037142466718166054, 0.0004
 3972, 0.016724476946440418, 0.0037142466718166054, 0.0004
 3973, 0.01705781027977375, 0.0037142466718166054, 0.0004
 3985, 0.021057810279773766, 0.0037142466718166054, 0.0004
 3986, 0.021391143613107098, 0.0037142466718166054, 0.0004
 3987, 0.021735966425170887, 0.0037142466718166054, 0.0004
 3988, 0.022092674740329627, 0.0037142466718166054, 0.0004
 3989, 0.022461678233288346, 0.0037142466718166054, 0.0004
 3990, 0.022843400699598504, 0.0037142466718166054, 0.0004
 3991, 0.023238280542381487, 0.0037142466718166054, 0.0004
 3992, 0.023646771275828694, 0.0037142466718166054, 0.0004
 3993, 0.024069342046056492, 0.0037142466718166054, 0.0004
 3994, 0.024506478169914223, 0.0037142466718166054, 0.0004
 3995, 0.02495868169236409, 0.0037142466718166054, 0.0004
 3996, 0.02542647196307303, 0.0037142466718166054, 0.0004
 3997, 0.025910386232878845, 0.0037142466718166054, 0.0004
 3998, 0.026410980270815558, 0.0037142466718166054, 0.0004
 3999, 0.026928829002406673, 0.0037142466718166054, 0.0004
 4000, 0.027464527169959417, 0.0037142466718166054, 0.0004
 4001, 0.028018690015618287, 0.0037142466718166054, 0.0004
 4002, 0.02859195398796238, 0.0037142466718166054, 0.0004
 4003, 0.02918497747295802, 0.0037142466718166054, 0.0004
 4004, 0.02979844155010622, 0.0037142466718166054, 0.0004
 4005, 0.0304330507746533, 0.0037142466718166054, 0.0004
 4006, 0.031089533986763136, 0.0037142466718166054, 0.0004
 4007, 0.031768645148580285, 0.0037142466718166054, 0.0004
 4008, 0.03247116421014538, 0.0037142466718166054, 0.0004
 4009, 0.033197898005157246, 0.0037142466718166054, 0.0004
 4010, 0.033949681177610595, 0.0037142466718166054, 0.0004
 4011, 0.0347273771403734, 0.0037142466718166054, 0.0004
 4012, 0.035531879066804974, 0.0037142466718166054, 0.0004
 4013, 0.036364110916553595, 0.0037142466718166054, 0.0004
 4014, 0.0372250284967117, 0.0037142466718166054, 0.0004
 4015, 0.038115620559547515, 0.0037142466718166054, 0.0004
 4016, 0.0, 0.003746572219647471, 0.0004
 4017, 0.0008905920628358133, 0.003746572219647471, 0.0004
 4018, 0.0017515096429939181, 0.003746572219647471, 0.0004
 4019, 0.002583741492742537, 0.003746572219647471, 0.0004
 4020, 0.0033882434191741147, 0.003746572219647471, 0.0004
 4021, 0.004165939381936917, 0.003746572219647471, 0.0004
 4022, 0.004917722554390265, 0.003746572219647471, 0.0004
 4023, 0.005644456349402134, 0.003746572219647471, 0.0004
 4024, 0.006346975410967226, 0.003746572219647471, 0.0004
 4025, 0.007026086572784376, 0.003746572219647471, 0.0004
 4026, 0.007682569784894212, 0.003746572219647471, 0.0004
 4027, 0.008317179009441292, 0.003746572219647471, 0.0004
 4028, 0.008930643086589493, 0.003746572219647471, 0.0004
 4029, 0.009523666571585137, 0.003746572219647471, 0.0004
 4030, 0.010096930543929227, 0.003746572219647471, 0.0004
 4031, 0.010651093389588097, 0.003746572219647471, 0.0004
 4032, 0.01118679155714084, 0.003746572219647471, 0.0004
 4033, 0.011704640288731954, 0.003746572219647471, 0.0004
 4034, 0.012205234326668665, 0.003746572219647471, 0.0004
 4035, 0.012689148596474482, 0.003746572219647471, 0.0004
 4036, 0.013156938867183424, 0.003746572219647471, 0.0004
 4037, 0.01360914238963329, 0.003746572219647471, 0.0004
 4038, 0.014046278513491023, 0.003746572219647471, 0.0004
 4039, 0.01446884928371882, 0.003746572219647471, 0.0004
 4040, 0.014877340017166027, 0.003746572219647471, 0.0004
 4041, 0.01527221985994901, 0.003746572219647471, 0.0004
 4042, 0.01565394232625917, 0.003746572219647471, 0.0004
 4043, 0.016022945819217888, 0.003746572219647471, 0.0004
 4044, 0.01637965413437663, 0.003746572219647471, 0.0004
 4045, 0.016724476946440418, 0.003746572219647471, 0.0004
 4046, 0.01705781027977375, 0.003746572219647471, 0.0004
 4058, 0.021057810279773766, 0.003746572219647471, 0.0004
 4059, 0.021391143613107098, 0.003746572219647471, 0.0004
 4060, 0.021735966425170887, 0.003746572219647471, 0.0004
 4061, 0.022092674740329627, 0.003746572219647471, 0.0004
 4062, 0.022461678233288346, 0.003746572219647471, 0.0004
 4063, 0.022843400699598504, 0.003746572219647471, 0.0004
 4064, 0.023238280542381487, 0.003746572219647471, 0.0004
 4065, 0.023646771275828694, 0.003746572219647471, 0.0004
 4066, 0.024069342046056492, 0.003746572219647471, 0.0004
 4067, 0.024506478169914223, 0.003746572219647471, 0.0004
 4068, 0.02495868169236409, 0.003746572219647471, 0.0004
 4069, 0.02542647196307303, 0.003746572219647471, 0.0004
 4070, 0.025910386232878845, 0.003746572219647471, 0.0004
 4071, 0.026410980270815558, 0.003746572219647471, 0.0004
 4072, 0.026928829002406673, 0.003746572219647471, 0.0004
 4073, 0.027464527169959417, 0.003746572219647471, 0.0004
 4074, 0.028018690015618287, 0.003746572219647471, 0.0004
 4075, 0.02859195398796238, 0.003746572219647471, 0.0004
 4076, 0.02918497747295802, 0.003746572219647471, 0.0004
 4077, 0.02979844155010622, 0.003746572219647471, 0.0004
 4078, 0.0304330507746533, 0.003746572219647471, 0.0004
 4079, 0.031089533986763136, 0.003746572219647471, 0.0004
 4080, 0.031768645148580285, 0.003746572219647471, 0.0004
 4081, 0.03247116421014538, 0.003746572219647471, 0.0004
 4082, 0.033197898005157246, 0.003746572219647471, 0.0004
 4083, 0.033949681177610595, 0.003746572219647471, 0.0004
 4084, 0.0347273771403734, 0.003746572219647471, 0.0004
 4085, 0.035531879066804974, 0.003746572219647471, 0.0004
 4086, 0.036364110916553595, 0.003746572219647471, 0.0004
 4087, 0.0372250284967117, 0.003746572219647471, 0.0004
 4088, 0.038115620559547515, 0.003746572219647471, 0.0004
 4089, 0.0, 0.003775, 0.0004
 4090, 0.0008905920628358133, 0.003775, 0.0004
 4091, 0.0017515096429939181, 0.003775, 0.0004
 4092, 0.002583741492742537, 0.003775, 0.0004
 4093, 0.0033882434191741147, 0.003775, 0.0004
 4094, 0.004165939381936917, 0.003775, 0.0004
 4095, 0.004917722554390265, 0.003775, 0.0004
 4096, 0.005644456349402134, 0.003775, 0.0004
 4097, 0.006346975410967226, 0.003775, 0.0004
 4098, 0.007026086572784376, 0.003775, 0.0004
 4099, 0.007682569784894212, 0.003775, 0.0004
 4100, 0.008317179009441292, 0.003775, 0.0004
 4101, 0.008930643086589493, 0.003775, 0.0004
 4102, 0.009523666571585137, 0.003775, 0.0004
 4103, 0.010096930543929227, 0.003775, 0.0004
 4104, 0.010651093389588097, 0.003775, 0.0004
 4105, 0.01118679155714084, 0.003775, 0.0004
 4106, 0.011704640288731954, 0.003775, 0.0004
 4107, 0.012205234326668665, 0.003775, 0.0004
 4108, 0.012689148596474482, 0.003775, 0.0004
 4109, 0.013156938867183424, 0.003775, 0.0004
 4110, 0.01360914238963329, 0.003775, 0.0004
 4111, 0.014046278513491023, 0.003775, 0.0004
 4112, 0.01446884928371882, 0.003775, 0.0004
 4113, 0.014877340017166027, 0.003775, 0.0004
 4114, 0.01527221985994901, 0.003775, 0.0004
 4115, 0.01565394232625917, 0.003775, 0.0004
 4116, 0.016022945819217888, 0.003775, 0.0004
 4117, 0.01637965413437663, 0.003775, 0.0004
 4118, 0.016724476946440418, 0.003775, 0.0004
 4119, 0.01705781027977375, 0.003775, 0.0004
 4131, 0.021057810279773766, 0.003775, 0.0004
 4132, 0.021391143613107098, 0.003775, 0.0004
 4133, 0.021735966425170887, 0.003775, 0.0004
 4134, 0.022092674740329627, 0.003775, 0.0004
 4135, 0.022461678233288346, 0.003775, 0.0004
 4136, 0.022843400699598504, 0.003775, 0.0004
 4137, 0.023238280542381487, 0.003775, 0.0004
 4138, 0.023646771275828694, 0.003775, 0.0004
 4139, 0.024069342046056492, 0.003775, 0.0004
 4140, 0.024506478169914223, 0.003775, 0.0004
 4141, 0.02495868169236409, 0.003775, 0.0004
 4142, 0.02542647196307303, 0.003775, 0.0004
 4143, 0.025910386232878845, 0.003775, 0.0004
 4144, 0.026410980270815558, 0.003775, 0.0004
 4145, 0.026928829002406673, 0.003775, 0.0004
 4146, 0.027464527169959417, 0.003775, 0.0004
 4147, 0.028018690015618287, 0.003775, 0.0004
 4148, 0.02859195398796238, 0.003775, 0.0004
 4149, 0.02918497747295802, 0.003775, 0.0004
 4150, 0.02979844155010622, 0.003775, 0.0004
 4151, 0.0304330507746533, 0.003775, 0.0004
 4152, 0.031089533986763136, 0.003775, 0.0004
 4153, 0.031768645148580285, 0.003775, 0.0004
 4154, 0.03247116421014538, 0.003775, 0.0004
 4155, 0.033197898005157246, 0.003775, 0.0004
 4156, 0.033949681177610595, 0.003775, 0.0004
 4157, 0.0347273771403734, 0.003775, 0.0004
 4158, 0.035531879066804974, 0.003775, 0.0004
 4159, 0.036364110916553595, 0.003775, 0.0004
 4160, 0.0372250284967117, 0.003775, 0.0004
 4161, 0.038115620559547515, 0.003775, 0.0004
 4162, 0.0, 0.0038, 0.0004
 4163, 0.0008905920628358133, 0.0038, 0.0004
 4164, 0.0017515096429939181, 0.0038, 0.0004
 4165, 0.002583741492742537, 0.0038, 0.0004
 4166, 0.0033882434191741147, 0.0038, 0.0004
 4167, 0.004165939381936917, 0.0038, 0.0004
 4168, 0.004917722554390265, 0.0038, 0.0004
 4169, 0.005644456349402134, 0.0038, 0.0004
 4170, 0.006346975410967226, 0.0038, 0.0004
 4171, 0.007026086572784376, 0.0038, 0.0004
 4172, 0.007682569784894212, 0.0038, 0.0004
 4173, 0.008317179009441292, 0.0038, 0.0004
 4174, 0.008930643086589493, 0.0038, 0.0004
 4175, 0.009523666571585137, 0.0038, 0.0004
 4176, 0.010096930543929227, 0.0038, 0.0004
 4177, 0.010651093389588097, 0.0038, 0.0004
 4178, 0.01118679155714084, 0.0038, 0.0004
 4179, 0.011704640288731954, 0.0038, 0.0004
 4180, 0.012205234326668665, 0.0038, 0.0004
 4181, 0.012689148596474482, 0.0038, 0.0004
 4182, 0.013156938867183424, 0.0038, 0.0004
 4183, 0.01360914238963329, 0.0038, 0.0004
 4184, 0.014046278513491023, 0.0038, 0.0004
 4185, 0.01446884928371882, 0.0038, 0.0004
 4186, 0.014877340017166027, 0.0038, 0.0004
 4187, 0.01527221985994901, 0.0038, 0.0004
 4188, 0.01565394232625917, 0.0038, 0.0004
 4189, 0.016022945819217888, 0.0038, 0.0004
 4190, 0.01637965413437663, 0.0038, 0.0004
 4191, 0.016724476946440418, 0.0038, 0.0004
 4192, 0.01705781027977375, 0.0038, 0.0004
 4193, 0.017391143613107084, 0.0038, 0.0004
 4194, 0.01772447694644042, 0.0038, 0.0004
 4195, 0.018057810279773753, 0.0038, 0.0004
 4196, 0.018391143613107088, 0.0038, 0.0004
 4197, 0.018724476946440423, 0.0038, 0.0004
 4198, 0.019057810279773758, 0.0038, 0.0004
 4199, 0.019391143613107092, 0.0038, 0.0004
 4200, 0.019724476946440427, 0.0038, 0.0004
 4201, 0.020057810279773762, 0.0038, 0.0004
 4202, 0.020391143613107097, 0.0038, 0.0004
 4203, 0.02072447694644043, 0.0038, 0.0004
 4204, 0.021057810279773766, 0.0038, 0.0004
 4205, 0.021391143613107098, 0.0038, 0.0004
 4206, 0.021735966425170887, 0.0038, 0.0004
 4207, 0.022092674740329627, 0.0038, 0.0004
 4208, 0.022461678233288346, 0.0038, 0.0004
 4209, 0.022843400699598504, 0.0038, 0.0004
 4210, 0.023238280542381487, 0.0038, 0.0004
 4211, 0.023646771275828694, 0.0038, 0.0004
 4212, 0.024069342046056492, 0.0038, 0.0004
 4213, 0.024506478169914223, 0.0038, 0.0004
 4214, 0.02495868169236409, 0.0038, 0.0004
 4215, 0.02542647196307303, 0.0038, 0.0004
 4216, 0.025910386232878845, 0.0038, 0.0004
 4217, 0.026410980270815558, 0.0038, 0.0004
 4218, 0.026928829002406673, 0.0038, 0.0004
 4219, 0.027464527169959417, 0.0038, 0.0004
 4220, 0.028018690015618287, 0.0038, 0.0004
 4221, 0.02859195398796238, 0.0038, 0.0004
 4222, 0.02918497747295802, 0.0038, 0.0004
 4223, 0.02979844155010622, 0.0038, 0.0004
 4224, 0.0304330507746533, 0.0038, 0.0004
 4225, 0.031089533986763136, 0.0038, 0.0004
 4226, 0.031768645148580285, 0.0038, 0.0004
 4227, 0.03247116421014538, 0.0038, 0.0004
 4228, 0.033197898005157246, 0.0038, 0.0004
 4229, 0.033949681177610595, 0.0038, 0.0004
 4230, 0.0347273771403734, 0.0038, 0.0004
 4231, 0.035531879066804974, 0.0038, 0.0004
 4232, 0.036364110916553595, 0.0038, 0.0004
 4233, 0.0372250284967117, 0.0038, 0.0004
 4234, 0.038115620559547515, 0.0038, 0.0004
 4235, 0.0, 0.003825, 0.0004
 4236, 0.0008905920628358133, 0.003825, 0.0004
 4237, 0.0017515096429939181, 0.003825, 0.0004
 4238, 0.002583741492742537, 0.003825, 0.0004
 4239, 0.0033882434191741147, 0.003825, 0.0004
 4240, 0.004165939381936917, 0.003825, 0.0004
 4241, 0.004917722554390265, 0.003825, 0.0004
 4242, 0.005644456349402134, 0.003825, 0.0004
 4243, 0.006346975410967226, 0.003825, 0.0004
 4244, 0.007026086572784376, 0.003825, 0.0004
 4245, 0.007682569784894212, 0.003825, 0.0004
 4246, 0.008317179009441292, 0.003825, 0.0004
 4247, 0.008930643086589493, 0.003825, 0.0004
 4248, 0.009523666571585137, 0.003825, 0.0004
 4249, 0.010096930543929227, 0.003825, 0.0004
 4250, 0.010651093389588097, 0.003825, 0.0004
 4251, 0.01118679155714084, 0.003825, 0.0004
 4252, 0.011704640288731954, 0.003825, 0.0004
 4253, 0.012205234326668665, 0.003825, 0.0004
 4254, 0.012689148596474482, 0.003825, 0.0004
 4255, 0.013156938867183424, 0.003825, 0.0004
 4256, 0.01360914238963329, 0.003825, 0.0004
 4257, 0.014046278513491023, 0.003825, 0.0004
 4258, 0.01446884928371882, 0.003825, 0.0004
 4259, 0.014877340017166027, 0.003825, 0.0004
 4260, 0.01527221985994901, 0.003825, 0.0004
 4261, 0.01565394232625917, 0.003825, 0.0004
 4262, 0.016022945819217888, 0.003825, 0.0004
 4263, 0.01637965413437663, 0.003825, 0.0004
 4264, 0.016724476946440418, 0.003825, 0.0004
 4265, 0.01705781027977375, 0.003825, 0.0004
 4266, 0.017391143613107084, 0.003825, 0.0004
 4267, 0.01772447694644042, 0.003825, 0.0004
 4268, 0.018057810279773753, 0.003825, 0.0004
 4269, 0.018391143613107088, 0.003825, 0.0004
 4270, 0.018724476946440423, 0.003825, 0.0004
 4271, 0.019057810279773758, 0.003825, 0.0004
 4272, 0.019391143613107092, 0.003825, 0.0004
 4273, 0.019724476946440427, 0.003825, 0.0004
 4274, 0.020057810279773762, 0.003825, 0.0004
 4275, 0.020391143613107097, 0.003825, 0.0004
 4276, 0.02072447694644043, 0.003825, 0.0004
 4277, 0.021057810279773766, 0.003825, 0.0004
 4278, 0.021391143613107098, 0.003825, 0.0004
 4279, 0.021735966425170887, 0.003825, 0.0004
 4280, 0.022092674740329627, 0.003825, 0.0004
 4281, 0.022461678233288346, 0.003825, 0.0004
 4282, 0.022843400699598504, 0.003825, 0.0004
 4283, 0.023238280542381487, 0.003825, 0.0004
 4284, 0.023646771275828694, 0.003825, 0.0004
 4285, 0.024069342046056492, 0.003825, 0.0004
 4286, 0.024506478169914223, 0.003825, 0.0004
 4287, 0.02495868169236409, 0.003825, 0.0004
 4288, 0.02542647196307303, 0.003825, 0.0004
 4289, 0.025910386232878845, 0.003825, 0.0004
 4290, 0.026410980270815558, 0.003825, 0.0004
 4291, 0.026928829002406673, 0.003825, 0.0004
 4292, 0.027464527169959417, 0.003825, 0.0004
 4293, 0.028018690015618287, 0.003825, 0.0004
 4294, 0.02859195398796238, 0.003825, 0.0004
 4295, 0.02918497747295802, 0.003825, 0.0004
 4296, 0.02979844155010622, 0.003825, 0.0004
 4297, 0.0304330507746533, 0.003825, 0.0004
 4298, 0.031089533986763136, 0.003825, 0.0004
 4299, 0.031768645148580285, 0.003825, 0.0004
 4300, 0.03247116421014538, 0.003825, 0.0004
 4301, 0.033197898005157246, 0.003825, 0.0004
 4302, 0.033949681177610595, 0.003825, 0.0004
 4303, 0.0347273771403734, 0.003825, 0.0004
 4304, 0.035531879066804974, 0.003825, 0.0004
 4305, 0.036364110916553595, 0.003825, 0.0004
 4306, 0.0372250284967117, 0.003825, 0.0004
 4307, 0.038115620559547515, 0.003825, 0.0004
 4308, 0.0, 0.0038499999999999997, 0.0004
 4309, 0.0008905920628358133, 0.0038499999999999997, 0.0004
 4310, 0.0017515096429939181, 0.0038499999999999997, 0.0004
 4311, 0.002583741492742537, 0.0038499999999999997, 0.0004
 4312, 0.0033882434191741147, 0.0038499999999999997, 0.0004
 4313, 0.004165939381936917, 0.0038499999999999997, 0.0004
 4314, 0.004917722554390265, 0.0038499999999999997, 0.0004
 4315, 0.005644456349402134, 0.0038499999999999997, 0.0004
 4316, 0.006346975410967226, 0.0038499999999999997, 0.0004
 4317, 0.007026086572784376, 0.0038499999999999997, 0.0004
 4318, 0.007682569784894212, 0.0038499999999999997, 0.0004
 4319, 0.008317179009441292, 0.0038499999999999997, 0.0004
 4320, 0.008930643086589493, 0.0038499999999999997, 0.0004
 4321, 0.009523666571585137, 0.0038499999999999997, 0.0004
 4322, 0.010096930543929227, 0.0038499999999999997, 0.0004
 4323, 0.010651093389588097, 0.0038499999999999997, 0.0004
 4324, 0.01118679155714084, 0.0038499999999999997, 0.0004
 4325, 0.011704640288731954, 0.0038499999999999997, 0.0004
 4326, 0.012205234326668665, 0.0038499999999999997, 0.0004
 4327, 0.012689148596474482, 0.0038499999999999997, 0.0004
 4328, 0.013156938867183424, 0.0038499999999999997, 0.0004
 4329, 0.01360914238963329, 0.0038499999999999997, 0.0004
 4330, 0.014046278513491023, 0.0038499999999999997, 0.0004
 4331, 0.01446884928371882, 0.0038499999999999997, 0.0004
 4332, 0.014877340017166027, 0.0038499999999999997, 0.0004
 4333, 0.01527221985994901, 0.0038499999999999997, 0.0004
 4334, 0.01565394232625917, 0.0038499999999999997, 0.0004
 4335, 0.016022945819217888, 0.0038499999999999997, 0.0004
 4336, 0.01637965413437663, 0.0038499999999999997, 0.0004
 4337, 0.016724476946440418, 0.0038499999999999997, 0.0004
 4338, 0.01705781027977375, 0.0038499999999999997, 0.0004
 4339, 0.017391143613107084, 0.0038499999999999997, 0.0004
 4340, 0.01772447694644042, 0.0038499999999999997, 0.0004
 4341, 0.018057810279773753, 0.0038499999999999997, 0.0004
 4342, 0.018391143613107088, 0.0038499999999999997, 0.0004
 4343, 0.018724476946440423, 0.0038499999999999997, 0.0004
 4344, 0.019057810279773758, 0.0038499999999999997, 0.0004
 4345, 0.019391143613107092, 0.0038499999999999997, 0.0004
 4346, 0.019724476946440427, 0.0038499999999999997, 0.0004
 4347, 0.020057810279773762, 0.0038499999999999997, 0.0004
 4348, 0.020391143613107097, 0.0038499999999999997, 0.0004
 4349, 0.02072447694644043, 0.0038499999999999997, 0.0004
 4350, 0.021057810279773766, 0.0038499999999999997, 0.0004
 4351, 0.021391143613107098, 0.0038499999999999997, 0.0004
 4352, 0.021735966425170887, 0.0038499999999999997, 0.0004
 4353, 0.022092674740329627, 0.0038499999999999997, 0.0004
 4354, 0.022461678233288346, 0.0038499999999999997, 0.0004
 4355, 0.022843400699598504, 0.0038499999999999997, 0.0004
 4356, 0.023238280542381487, 0.0038499999999999997, 0.0004
 4357, 0.023646771275828694, 0.0038499999999999997, 0.0004
 4358, 0.024069342046056492, 0.0038499999999999997, 0.0004
 4359, 0.024506478169914223, 0.0038499999999999997, 0.0004
 4360, 0.02495868169236409, 0.0038499999999999997, 0.0004
 4361, 0.02542647196307303, 0.0038499999999999997, 0.0004
 4362, 0.025910386232878845, 0.0038499999999999997, 0.0004
 4363, 0.026410980270815558, 0.0038499999999999997, 0.0004
 4364, 0.026928829002406673, 0.0038499999999999997, 0.0004
 4365, 0.027464527169959417, 0.0038499999999999997, 0.0004
 4366, 0.028018690015618287, 0.0038499999999999997, 0.0004
 4367, 0.02859195398796238, 0.0038499999999999997, 0.0004
 4368, 0.02918497747295802, 0.0038499999999999997, 0.0004
 4369, 0.02979844155010622, 0.0038499999999999997, 0.0004
 4370, 0.0304330507746533, 0.0038499999999999997, 0.0004
 4371, 0.031089533986763136, 0.0038499999999999997, 0.0004
 4372, 0.031768645148580285, 0.0038499999999999997, 0.0004
 4373, 0.03247116421014538, 0.0038499999999999997, 0.0004
 4374, 0.033197898005157246, 0.0038499999999999997, 0.0004
 4375, 0.033949681177610595, 0.0038499999999999997, 0.0004
 4376, 0.0347273771403734, 0.0038499999999999997, 0.0004
 4377, 0.035531879066804974, 0.0038499999999999997, 0.0004
 4378, 0.036364110916553595, 0.0038499999999999997, 0.0004
 4379, 0.0372250284967117, 0.0038499999999999997, 0.0004
 4380, 0.038115620559547515, 0.0038499999999999997, 0.0004
 4381, 0.0, 0.0038749999999999995, 0.0004
 4382, 0.0008905920628358133, 0.0038749999999999995, 0.0004
 4383, 0.0017515096429939181, 0.0038749999999999995, 0.0004
 4384, 0.002583741492742537, 0.0038749999999999995, 0.0004
 4385, 0.0033882434191741147, 0.0038749999999999995, 0.0004
 4386, 0.004165939381936917, 0.0038749999999999995, 0.0004
 4387, 0.004917722554390265, 0.0038749999999999995, 0.0004
 4388, 0.005644456349402134, 0.0038749999999999995, 0.0004
 4389, 0.006346975410967226, 0.0038749999999999995, 0.0004
 4390, 0.007026086572784376, 0.0038749999999999995, 0.0004
 4391, 0.007682569784894212, 0.0038749999999999995, 0.0004
 4392, 0.008317179009441292, 0.0038749999999999995, 0.0004
 4393, 0.008930643086589493, 0.0038749999999999995, 0.0004
 4394, 0.009523666571585137, 0.0038749999999999995, 0.0004
 4395, 0.010096930543929227, 0.0038749999999999995, 0.0004
 4396, 0.010651093389588097, 0.0038749999999999995, 0.0004
 4397, 0.01118679155714084, 0.0038749999999999995, 0.0004
 4398, 0.011704640288731954, 0.0038749999999999995, 0.0004
 4399, 0.012205234326668665, 0.0038749999999999995, 0.0004
 4400, 0.012689148596474482, 0.0038749999999999995, 0.0004
 4401, 0.013156938867183424, 0.0038749999999999995, 0.0004
 4402, 0.01360914238963329, 0.0038749999999999995, 0.0004
 4403, 0.014046278513491023, 0.0038749999999999995, 0.0004
 4404, 0.01446884928371882, 0.0038749999999999995, 0.0004
 4405, 0.014877340017166027, 0.0038749999999999995, 0.0004
 4406, 0.01527221985994901, 0.0038749999999999995, 0.0004
 4407, 0.01565394232625917, 0.0038749999999999995, 0.0004
 4408, 0.016022945819217888, 0.0038749999999999995, 0.0004
 4409, 0.01637965413437663, 0.0038749999999999995, 0.0004
 4410, 0.016724476946440418, 0.0038749999999999995, 0.0004
 4411, 0.01705781027977375, 0.0038749999999999995, 0.0004
 4412, 0.017391143613107084, 0.0038749999999999995, 0.0004
 4413, 0.01772447694644042, 0.0038749999999999995, 0.0004
 4414, 0.018057810279773753, 0.0038749999999999995, 0.0004
 4415, 0.018391143613107088, 0.0038749999999999995, 0.0004
 4416, 0.018724476946440423, 0.0038749999999999995, 0.0004
 4417, 0.019057810279773758, 0.0038749999999999995, 0.0004
 4418, 0.019391143613107092, 0.0038749999999999995, 0.0004
 4419, 0.019724476946440427, 0.0038749999999999995, 0.0004
 4420, 0.020057810279773762, 0.0038749999999999995, 0.0004
 4421, 0.020391143613107097, 0.0038749999999999995, 0.0004
 4422, 0.02072447694644043, 0.0038749999999999995, 0.0004
 4423, 0.021057810279773766, 0.0038749999999999995, 0.0004
 4424, 0.021391143613107098, 0.0038749999999999995, 0.0004
 4425, 0.021735966425170887, 0.0038749999999999995, 0.0004
 4426, 0.022092674740329627, 0.0038749999999999995, 0.0004
 4427, 0.022461678233288346, 0.0038749999999999995, 0.0004
 4428, 0.022843400699598504, 0.0038749999999999995, 0.0004
 4429, 0.023238280542381487, 0.0038749999999999995, 0.0004
 4430, 0.023646771275828694, 0.0038749999999999995, 0.0004
 4431, 0.024069342046056492, 0.0038749999999999995, 0.0004
 4432, 0.024506478169914223, 0.0038749999999999995, 0.0004
 4433, 0.02495868169236409, 0.0038749999999999995, 0.0004
 4434, 0.02542647196307303, 0.0038749999999999995, 0.0004
 4435, 0.025910386232878845, 0.0038749999999999995, 0.0004
 4436, 0.026410980270815558, 0.0038749999999999995, 0.0004
 4437, 0.026928829002406673, 0.0038749999999999995, 0.0004
 4438, 0.027464527169959417, 0.0038749999999999995, 0.0004
 4439, 0.028018690015618287, 0.0038749999999999995, 0.0004
 4440, 0.02859195398796238, 0.0038749999999999995, 0.0004
 4441, 0.02918497747295802, 0.0038749999999999995, 0.0004
 4442, 0.02979844155010622, 0.0038749999999999995, 0.0004
 4443, 0.0304330507746533, 0.0038749999999999995, 0.0004
 4444, 0.031089533986763136, 0.0038749999999999995, 0.0004
 4445, 0.031768645148580285, 0.0038749999999999995, 0.0004
 4446, 0.03247116421014538, 0.0038749999999999995, 0.0004
 4447, 0.033197898005157246, 0.0038749999999999995, 0.0004
 4448, 0.033949681177610595, 0.0038749999999999995, 0.0004
 4449, 0.0347273771403734, 0.0038749999999999995, 0.0004
 4450, 0.035531879066804974, 0.0038749999999999995, 0.0004
 4451, 0.036364110916553595, 0.0038749999999999995, 0.0004
 4452, 0.0372250284967117, 0.0038749999999999995, 0.0004
 4453, 0.038115620559547515, 0.0038749999999999995, 0.0004
 4454, 0.0, 0.0038999999999999994, 0.0004
 4455, 0.0008905920628358133, 0.0038999999999999994, 0.0004
 4456, 0.0017515096429939181, 0.0038999999999999994, 0.0004
 4457, 0.002583741492742537, 0.0038999999999999994, 0.0004
 4458, 0.0033882434191741147, 0.0038999999999999994, 0.0004
 4459, 0.004165939381936917, 0.0038999999999999994, 0.0004
 4460, 0.004917722554390265, 0.0038999999999999994, 0.0004
 4461, 0.005644456349402134, 0.0038999999999999994, 0.0004
 4462, 0.006346975410967226, 0.0038999999999999994, 0.0004
 4463, 0.007026086572784376, 0.0038999999999999994, 0.0004
 4464, 0.007682569784894212, 0.0038999999999999994, 0.0004
 4465, 0.008317179009441292, 0.0038999999999999994, 0.0004
 4466, 0.008930643086589493, 0.0038999999999999994, 0.0004
 4467, 0.009523666571585137, 0.0038999999999999994, 0.0004
 4468, 0.010096930543929227, 0.0038999999999999994, 0.0004
 4469, 0.010651093389588097, 0.0038999999999999994, 0.0004
 4470, 0.01118679155714084, 0.0038999999999999994, 0.0004
 4471, 0.011704640288731954, 0.0038999999999999994, 0.0004
 4472, 0.012205234326668665, 0.0038999999999999994, 0.0004
 4473, 0.012689148596474482, 0.0038999999999999994, 0.0004
 4474, 0.013156938867183424, 0.0038999999999999994, 0.0004
 4475, 0.01360914238963329, 0.0038999999999999994, 0.0004
 4476, 0.014046278513491023, 0.0038999999999999994, 0.0004
 4477, 0.01446884928371882, 0.0038999999999999994, 0.0004
 4478, 0.014877340017166027, 0.0038999999999999994, 0.0004
 4479, 0.01527221985994901, 0.0038999999999999994, 0.0004
 4480, 0.01565394232625917, 0.0038999999999999994, 0.0004
 4481, 0.016022945819217888, 0.0038999999999999994, 0.0004
 4482, 0.01637965413437663, 0.0038999999999999994, 0.0004
 4483, 0.016724476946440418, 0.0038999999999999994, 0.0004
 4484, 0.01705781027977375, 0.0038999999999999994, 0.0004
 4485, 0.017391143613107084, 0.0038999999999999994, 0.0004
 4486, 0.01772447694644042, 0.0038999999999999994, 0.0004
 4487, 0.018057810279773753, 0.0038999999999999994, 0.0004
 4488, 0.018391143613107088, 0.0038999999999999994, 0.0004
 4489, 0.018724476946440423, 0.0038999999999999994, 0.0004
 4490, 0.019057810279773758, 0.0038999999999999994, 0.0004
 4491, 0.019391143613107092, 0.0038999999999999994, 0.0004
 4492, 0.019724476946440427, 0.0038999999999999994, 0.0004
 4493, 0.020057810279773762, 0.0038999999999999994, 0.0004
 4494, 0.020391143613107097, 0.0038999999999999994, 0.0004
 4495, 0.02072447694644043, 0.0038999999999999994, 0.0004
 4496, 0.021057810279773766, 0.0038999999999999994, 0.0004
 4497, 0.021391143613107098, 0.0038999999999999994, 0.0004
 4498, 0.021735966425170887, 0.0038999999999999994, 0.0004
 4499, 0.022092674740329627, 0.0038999999999999994, 0.0004
 4500, 0.022461678233288346, 0.0038999999999999994, 0.0004
 4501, 0.022843400699598504, 0.0038999999999999994, 0.0004
 4502, 0.023238280542381487, 0.0038999999999999994, 0.0004
 4503, 0.023646771275828694, 0.0038999999999999994, 0.0004
 4504, 0.024069342046056492, 0.0038999999999999994, 0.0004
 4505, 0.024506478169914223, 0.0038999999999999994, 0.0004
 4506, 0.02495868169236409, 0.0038999999999999994, 0.0004
 4507, 0.02542647196307303, 0.0038999999999999994, 0.0004
 4508, 0.025910386232878845, 0.0038999999999999994, 0.0004
 4509, 0.026410980270815558, 0.0038999999999999994, 0.0004
 4510, 0.026928829002406673, 0.0038999999999999994, 0.0004
 4511, 0.027464527169959417, 0.0038999999999999994, 0.0004
 4512, 0.028018690015618287, 0.0038999999999999994, 0.0004
 4513, 0.02859195398796238, 0.0038999999999999994, 0.0004
 4514, 0.02918497747295802, 0.0038999999999999994, 0.0004
 4515, 0.02979844155010622, 0.0038999999999999994, 0.0004
 4516, 0.0304330507746533, 0.0038999999999999994, 0.0004
 4517, 0.031089533986763136, 0.0038999999999999994, 0.0004
 4518, 0.031768645148580285, 0.0038999999999999994, 0.0004
 4519, 0.03247116421014538, 0.0038999999999999994, 0.0004
 4520, 0.033197898005157246, 0.0038999999999999994, 0.0004
 4521, 0.033949681177610595, 0.0038999999999999994, 0.0004
 4522, 0.0347273771403734, 0.0038999999999999994, 0.0004
 4523, 0.035531879066804974, 0.0038999999999999994, 0.0004
 4524, 0.036364110916553595, 0.0038999999999999994, 0.0004
 4525, 0.0372250284967117, 0.0038999999999999994, 0.0004
 4526, 0.038115620559547515, 0.0038999999999999994, 0.0004
 4527, 0.0, 0.003925, 0.0004
 4528, 0.0008905920628358133, 0.003925, 0.0004
 4529, 0.0017515096429939181, 0.003925, 0.0004
 4530, 0.002583741492742537, 0.003925, 0.0004
 4531, 0.0033882434191741147, 0.003925, 0.0004
 4532, 0.004165939381936917, 0.003925, 0.0004
 4533, 0.004917722554390265, 0.003925, 0.0004
 4534, 0.005644456349402134, 0.003925, 0.0004
 4535, 0.006346975410967226, 0.003925, 0.0004
 4536, 0.007026086572784376, 0.003925, 0.0004
 4537, 0.007682569784894212, 0.003925, 0.0004
 4538, 0.008317179009441292, 0.003925, 0.0004
 4539, 0.008930643086589493, 0.003925, 0.0004
 4540, 0.009523666571585137, 0.003925, 0.0004
 4541, 0.010096930543929227, 0.003925, 0.0004
 4542, 0.010651093389588097, 0.003925, 0.0004
 4543, 0.01118679155714084, 0.003925, 0.0004
 4544, 0.011704640288731954, 0.003925, 0.0004
 4545, 0.012205234326668665, 0.003925, 0.0004
 4546, 0.012689148596474482, 0.003925, 0.0004
 4547, 0.013156938867183424, 0.003925, 0.0004
 4548, 0.01360914238963329, 0.003925, 0.0004
 4549, 0.014046278513491023, 0.003925, 0.0004
 4550, 0.01446884928371882, 0.003925, 0.0004
 4551, 0.014877340017166027, 0.003925, 0.0004
 4552, 0.01527221985994901, 0.003925, 0.0004
 4553, 0.01565394232625917, 0.003925, 0.0004
 4554, 0.016022945819217888, 0.003925, 0.0004
 4555, 0.01637965413437663, 0.003925, 0.0004
 4556, 0.016724476946440418, 0.003925, 0.0004
 4557, 0.01705781027977375, 0.003925, 0.0004
 4558, 0.017391143613107084, 0.003925, 0.0004
 4559, 0.01772447694644042, 0.003925, 0.0004
 4560, 0.018057810279773753, 0.003925, 0.0004
 4561, 0.018391143613107088, 0.003925, 0.0004
 4562, 0.018724476946440423, 0.003925, 0.0004
 4563, 0.019057810279773758, 0.003925, 0.0004
 4564, 0.019391143613107092, 0.003925, 0.0004
 4565, 0.019724476946440427, 0.003925, 0.0004
 4566, 0.020057810279773762, 0.003925, 0.0004
 4567, 0.020391143613107097, 0.003925, 0.0004
 4568, 0.02072447694644043, 0.003925, 0.0004
 4569, 0.021057810279773766, 0.003925, 0.0004
 4570, 0.021391143613107098, 0.003925, 0.0004
 4571, 0.021735966425170887, 0.003925, 0.0004
 4572, 0.022092674740329627, 0.003925, 0.0004
 4573, 0.022461678233288346, 0.003925, 0.0004
 4574, 0.022843400699598504, 0.003925, 0.0004
 4575, 0.023238280542381487, 0.003925, 0.0004
 4576, 0.023646771275828694, 0.003925, 0.0004
 4577, 0.024069342046056492, 0.003925, 0.0004
 4578, 0.024506478169914223, 0.003925, 0.0004
 4579, 0.02495868169236409, 0.003925, 0.0004
 4580, 0.02542647196307303, 0.003925, 0.0004
 4581, 0.025910386232878845, 0.003925, 0.0004
 4582, 0.026410980270815558, 0.003925, 0.0004
 4583, 0.026928829002406673, 0.003925, 0.0004
 4584, 0.027464527169959417, 0.003925, 0.0004
 4585, 0.028018690015618287, 0.003925, 0.0004
 4586, 0.02859195398796238, 0.003925, 0.0004
 4587, 0.02918497747295802, 0.003925, 0.0004
 4588, 0.02979844155010622, 0.003925, 0.0004
 4589, 0.0304330507746533, 0.003925, 0.0004
 4590, 0.031089533986763136, 0.003925, 0.0004
 4591, 0.031768645148580285, 0.003925, 0.0004
 4592, 0.03247116421014538, 0.003925, 0.0004
 4593, 0.033197898005157246, 0.003925, 0.0004
 4594, 0.033949681177610595, 0.003925, 0.0004
 4595, 0.0347273771403734, 0.003925, 0.0004
 4596, 0.035531879066804974, 0.003925, 0.0004
 4597, 0.036364110916553595, 0.003925, 0.0004
 4598, 0.0372250284967117, 0.003925, 0.0004
 4599, 0.038115620559547515, 0.003925, 0.0004
 4600, 0.0, 0.0039499999999999995, 0.0004
 4601, 0.0008905920628358133, 0.0039499999999999995, 0.0004
 4602, 0.0017515096429939181, 0.0039499999999999995, 0.0004
 4603, 0.002583741492742537, 0.0039499999999999995, 0.0004
 4604, 0.0033882434191741147, 0.0039499999999999995, 0.0004
 4605, 0.004165939381936917, 0.0039499999999999995, 0.0004
 4606, 0.004917722554390265, 0.0039499999999999995, 0.0004
 4607, 0.005644456349402134, 0.0039499999999999995, 0.0004
 4608, 0.006346975410967226, 0.0039499999999999995, 0.0004
 4609, 0.007026086572784376, 0.0039499999999999995, 0.0004
 4610, 0.007682569784894212, 0.0039499999999999995, 0.0004
 4611, 0.008317179009441292, 0.0039499999999999995, 0.0004
 4612, 0.008930643086589493, 0.0039499999999999995, 0.0004
 4613, 0.009523666571585137, 0.0039499999999999995, 0.0004
 4614, 0.010096930543929227, 0.0039499999999999995, 0.0004
 4615, 0.010651093389588097, 0.0039499999999999995, 0.0004
 4616, 0.01118679155714084, 0.0039499999999999995, 0.0004
 4617, 0.011704640288731954, 0.0039499999999999995, 0.0004
 4618, 0.012205234326668665, 0.0039499999999999995, 0.0004
 4619, 0.012689148596474482, 0.0039499999999999995, 0.0004
 4620, 0.013156938867183424, 0.0039499999999999995, 0.0004
 4621, 0.01360914238963329, 0.0039499999999999995, 0.0004
 4622, 0.014046278513491023, 0.0039499999999999995, 0.0004
 4623, 0.01446884928371882, 0.0039499999999999995, 0.0004
 4624, 0.014877340017166027, 0.0039499999999999995, 0.0004
 4625, 0.01527221985994901, 0.0039499999999999995, 0.0004
 4626, 0.01565394232625917, 0.0039499999999999995, 0.0004
 4627, 0.016022945819217888, 0.0039499999999999995, 0.0004
 4628, 0.01637965413437663, 0.0039499999999999995, 0.0004
 4629, 0.016724476946440418, 0.0039499999999999995, 0.0004
 4630, 0.01705781027977375, 0.0039499999999999995, 0.0004
 4631, 0.017391143613107084, 0.0039499999999999995, 0.0004
 4632, 0.01772447694644042, 0.0039499999999999995, 0.0004
 4633, 0.018057810279773753, 0.0039499999999999995, 0.0004
 4634, 0.018391143613107088, 0.0039499999999999995, 0.0004
 4635, 0.018724476946440423, 0.0039499999999999995, 0.0004
 4636, 0.019057810279773758, 0.0039499999999999995, 0.0004
 4637, 0.019391143613107092, 0.0039499999999999995, 0.0004
 4638, 0.019724476946440427, 0.0039499999999999995, 0.0004
 4639, 0.020057810279773762, 0.0039499999999999995, 0.0004
 4640, 0.020391143613107097, 0.0039499999999999995, 0.0004
 4641, 0.02072447694644043, 0.0039499999999999995, 0.0004
 4642, 0.021057810279773766, 0.0039499999999999995, 0.0004
 4643, 0.021391143613107098, 0.0039499999999999995, 0.0004
 4644, 0.021735966425170887, 0.0039499999999999995, 0.0004
 4645, 0.022092674740329627, 0.0039499999999999995, 0.0004
 4646, 0.022461678233288346, 0.0039499999999999995, 0.0004
 4647, 0.022843400699598504, 0.0039499999999999995, 0.0004
 4648, 0.023238280542381487, 0.0039499999999999995, 0.0004
 4649, 0.023646771275828694, 0.0039499999999999995, 0.0004
 4650, 0.024069342046056492, 0.0039499999999999995, 0.0004
 4651, 0.024506478169914223, 0.0039499999999999995, 0.0004
 4652, 0.02495868169236409, 0.0039499999999999995, 0.0004
 4653, 0.02542647196307303, 0.0039499999999999995, 0.0004
 4654, 0.025910386232878845, 0.0039499999999999995, 0.0004
 4655, 0.026410980270815558, 0.0039499999999999995, 0.0004
 4656, 0.026928829002406673, 0.0039499999999999995, 0.0004
 4657, 0.027464527169959417, 0.0039499999999999995, 0.0004
 4658, 0.028018690015618287, 0.0039499999999999995, 0.0004
 4659, 0.02859195398796238, 0.0039499999999999995, 0.0004
 4660, 0.02918497747295802, 0.0039499999999999995, 0.0004
 4661, 0.02979844155010622, 0.0039499999999999995, 0.0004
 4662, 0.0304330507746533, 0.0039499999999999995, 0.0004
 4663, 0.031089533986763136, 0.0039499999999999995, 0.0004
 4664, 0.031768645148580285, 0.0039499999999999995, 0.0004
 4665, 0.03247116421014538, 0.0039499999999999995, 0.0004
 4666, 0.033197898005157246, 0.0039499999999999995, 0.0004
 4667, 0.033949681177610595, 0.0039499999999999995, 0.0004
 4668, 0.0347273771403734, 0.0039499999999999995, 0.0004
 4669, 0.035531879066804974, 0.0039499999999999995, 0.0004
 4670, 0.036364110916553595, 0.0039499999999999995, 0.0004
 4671, 0.0372250284967117, 0.0039499999999999995, 0.0004
 4672, 0.038115620559547515, 0.0039499999999999995, 0.0004
 4673, 0.0, 0.003974999999999999, 0.0004
 4674, 0.0008905920628358133, 0.003974999999999999, 0.0004
 4675, 0.0017515096429939181, 0.003974999999999999, 0.0004
 4676, 0.002583741492742537, 0.003974999999999999, 0.0004
 4677, 0.0033882434191741147, 0.003974999999999999, 0.0004
 4678, 0.004165939381936917, 0.003974999999999999, 0.0004
 4679, 0.004917722554390265, 0.003974999999999999, 0.0004
 4680, 0.005644456349402134, 0.003974999999999999, 0.0004
 4681, 0.006346975410967226, 0.003974999999999999, 0.0004
 4682, 0.007026086572784376, 0.003974999999999999, 0.0004
 4683, 0.007682569784894212, 0.003974999999999999, 0.0004
 4684, 0.008317179009441292, 0.003974999999999999, 0.0004
 4685, 0.008930643086589493, 0.003974999999999999, 0.0004
 4686, 0.009523666571585137, 0.003974999999999999, 0.0004
 4687, 0.010096930543929227, 0.003974999999999999, 0.0004
 4688, 0.010651093389588097, 0.003974999999999999, 0.0004
 4689, 0.01118679155714084, 0.003974999999999999, 0.0004
 4690, 0.011704640288731954, 0.003974999999999999, 0.0004
 4691, 0.012205234326668665, 0.003974999999999999, 0.0004
 4692, 0.012689148596474482, 0.003974999999999999, 0.0004
 4693, 0.013156938867183424, 0.003974999999999999, 0.0004
 4694, 0.01360914238963329, 0.003974999999999999, 0.0004
 4695, 0.014046278513491023, 0.003974999999999999, 0.0004
 4696, 0.01446884928371882, 0.003974999999999999, 0.0004
 4697, 0.014877340017166027, 0.003974999999999999, 0.0004
 4698, 0.01527221985994901, 0.003974999999999999, 0.0004
 4699, 0.01565394232625917, 0.003974999999999999, 0.0004
 4700, 0.016022945819217888, 0.003974999999999999, 0.0004
 4701, 0.01637965413437663, 0.003974999999999999, 0.0004
 4702, 0.016724476946440418, 0.003974999999999999, 0.0004
 4703, 0.01705781027977375, 0.003974999999999999, 0.0004
 4704, 0.017391143613107084, 0.003974999999999999, 0.0004
 4705, 0.01772447694644042, 0.003974999999999999, 0.0004
 4706, 0.018057810279773753, 0.003974999999999999, 0.0004
 4707, 0.018391143613107088, 0.003974999999999999, 0.0004
 4708, 0.018724476946440423, 0.003974999999999999, 0.0004
 4709, 0.019057810279773758, 0.003974999999999999, 0.0004
 4710, 0.019391143613107092, 0.003974999999999999, 0.0004
 4711, 0.019724476946440427, 0.003974999999999999, 0.0004
 4712, 0.020057810279773762, 0.003974999999999999, 0.0004
 4713, 0.020391143613107097, 0.003974999999999999, 0.0004
 4714, 0.02072447694644043, 0.003974999999999999, 0.0004
 4715, 0.021057810279773766, 0.003974999999999999, 0.0004
 4716, 0.021391143613107098, 0.003974999999999999, 0.0004
 4717, 0.021735966425170887, 0.003974999999999999, 0.0004
 4718, 0.022092674740329627, 0.003974999999999999, 0.0004
 4719, 0.022461678233288346, 0.003974999999999999, 0.0004
 4720, 0.022843400699598504, 0.003974999999999999, 0.0004
 4721, 0.023238280542381487, 0.003974999999999999, 0.0004
 4722, 0.023646771275828694, 0.003974999999999999, 0.0004
 4723, 0.024069342046056492, 0.003974999999999999, 0.0004
 4724, 0.024506478169914223, 0.003974999999999999, 0.0004
 4725, 0.02495868169236409, 0.003974999999999999, 0.0004
 4726, 0.02542647196307303, 0.003974999999999999, 0.0004
 4727, 0.025910386232878845, 0.003974999999999999, 0.0004
 4728, 0.026410980270815558, 0.003974999999999999, 0.0004
 4729, 0.026928829002406673, 0.003974999999999999, 0.0004
 4730, 0.027464527169959417, 0.003974999999999999, 0.0004
 4731, 0.028018690015618287, 0.003974999999999999, 0.0004
 4732, 0.02859195398796238, 0.003974999999999999, 0.0004
 4733, 0.02918497747295802, 0.003974999999999999, 0.0004
 4734, 0.02979844155010622, 0.003974999999999999, 0.0004
 4735, 0.0304330507746533, 0.003974999999999999, 0.0004
 4736, 0.031089533986763136, 0.003974999999999999, 0.0004
 4737, 0.031768645148580285, 0.003974999999999999, 0.0004
 4738, 0.03247116421014538, 0.003974999999999999, 0.0004
 4739, 0.033197898005157246, 0.003974999999999999, 0.0004
 4740, 0.033949681177610595, 0.003974999999999999, 0.0004
 4741, 0.0347273771403734, 0.003974999999999999, 0.0004
 4742, 0.035531879066804974, 0.003974999999999999, 0.0004
 4743, 0.036364110916553595, 0.003974999999999999, 0.0004
 4744, 0.0372250284967117, 0.003974999999999999, 0.0004
 4745, 0.038115620559547515, 0.003974999999999999, 0.0004
 4746, 0.0, 0.003999999999999999, 0.0004
 4747, 0.0008905920628358133, 0.003999999999999999, 0.0004
 4748, 0.0017515096429939181, 0.003999999999999999, 0.0004
 4749, 0.002583741492742537, 0.003999999999999999, 0.0004
 4750, 0.0033882434191741147, 0.003999999999999999, 0.0004
 4751, 0.004165939381936917, 0.003999999999999999, 0.0004
 4752, 0.004917722554390265, 0.003999999999999999, 0.0004
 4753, 0.005644456349402134, 0.003999999999999999, 0.0004
 4754, 0.006346975410967226, 0.003999999999999999, 0.0004
 4755, 0.007026086572784376, 0.003999999999999999, 0.0004
 4756, 0.007682569784894212, 0.003999999999999999, 0.0004
 4757, 0.008317179009441292, 0.003999999999999999, 0.0004
 4758, 0.008930643086589493, 0.003999999999999999, 0.0004
 4759, 0.009523666571585137, 0.003999999999999999, 0.0004
 4760, 0.010096930543929227, 0.003999999999999999, 0.0004
 4761, 0.010651093389588097, 0.003999999999999999, 0.0004
 4762, 0.01118679155714084, 0.003999999999999999, 0.0004
 4763, 0.011704640288731954, 0.003999999999999999, 0.0004
 4764, 0.012205234326668665, 0.003999999999999999, 0.0004
 4765, 0.012689148596474482, 0.003999999999999999, 0.0004
 4766, 0.013156938867183424, 0.003999999999999999, 0.0004
 4767, 0.01360914238963329, 0.003999999999999999, 0.0004
 4768, 0.014046278513491023, 0.003999999999999999, 0.0004
 4769, 0.01446884928371882, 0.003999999999999999, 0.0004
 4770, 0.014877340017166027, 0.003999999999999999, 0.0004
 4771, 0.01527221985994901, 0.003999999999999999, 0.0004
 4772, 0.01565394232625917, 0.003999999999999999, 0.0004
 4773, 0.016022945819217888, 0.003999999999999999, 0.0004
 4774, 0.01637965413437663, 0.003999999999999999, 0.0004
 4775, 0.016724476946440418, 0.003999999999999999, 0.0004
 4776, 0.01705781027977375, 0.003999999999999999, 0.0004
 4777, 0.017391143613107084, 0.003999999999999999, 0.0004
 4778, 0.01772447694644042, 0.003999999999999999, 0.0004
 4779, 0.018057810279773753, 0.003999999999999999, 0.0004
 4780, 0.018391143613107088, 0.003999999999999999, 0.0004
 4781, 0.018724476946440423, 0.003999999999999999, 0.0004
 4782, 0.019057810279773758, 0.003999999999999999, 0.0004
 4783, 0.019391143613107092, 0.003999999999999999, 0.0004
 4784, 0.019724476946440427, 0.003999999999999999, 0.0004
 4785, 0.020057810279773762, 0.003999999999999999, 0.0004
 4786, 0.020391143613107097, 0.003999999999999999, 0.0004
 4787, 0.02072447694644043, 0.003999999999999999, 0.0004
 4788, 0.021057810279773766, 0.003999999999999999, 0.0004
 4789, 0.021391143613107098, 0.003999999999999999, 0.0004
 4790, 0.021735966425170887, 0.003999999999999999, 0.0004
 4791, 0.022092674740329627, 0.003999999999999999, 0.0004
 4792, 0.022461678233288346, 0.003999999999999999, 0.0004
 4793, 0.022843400699598504, 0.003999999999999999, 0.0004
 4794, 0.023238280542381487, 0.003999999999999999, 0.0004
 4795, 0.023646771275828694, 0.003999999999999999, 0.0004
 4796, 0.024069342046056492, 0.003999999999999999, 0.0004
 4797, 0.024506478169914223, 0.003999999999999999, 0.0004
 4798, 0.02495868169236409, 0.003999999999999999, 0.0004
 4799, 0.02542647196307303, 0.003999999999999999, 0.0004
 4800, 0.025910386232878845, 0.003999999999999999, 0.0004
 4801, 0.026410980270815558, 0.003999999999999999, 0.0004
 4802, 0.026928829002406673, 0.003999999999999999, 0.0004
 4803, 0.027464527169959417, 0.003999999999999999, 0.0004
 4804, 0.028018690015618287, 0.003999999999999999, 0.0004
 4805, 0.02859195398796238, 0.003999999999999999, 0.0004
 4806, 0.02918497747295802, 0.003999999999999999, 0.0004
 4807, 0.02979844155010622, 0.003999999999999999, 0.0004
 4808, 0.0304330507746533, 0.003999999999999999, 0.0004
 4809, 0.031089533986763136, 0.003999999999999999, 0.0004
 4810, 0.031768645148580285, 0.003999999999999999, 0.0004
 4811, 0.03247116421014538, 0.003999999999999999, 0.0004
 4812, 0.033197898005157246, 0.003999999999999999, 0.0004
 4813, 0.033949681177610595, 0.003999999999999999, 0.0004
 4814, 0.0347273771403734, 0.003999999999999999, 0.0004
 4815, 0.035531879066804974, 0.003999999999999999, 0.0004
 4816, 0.036364110916553595, 0.003999999999999999, 0.0004
 4817, 0.0372250284967117, 0.003999999999999999, 0.0004
 4818, 0.038115620559547515, 0.003999999999999999, 0.0004
*ELEMENT, TYPE=C3D8, ELSET=CHANNEL
 1, 1, 2, 75, 74, 2410, 2411, 2484, 2483
 2, 2, 3, 76, 75, 2411, 2412, 2485, 2484
 3, 3, 4, 77, 76, 2412, 2413, 2486, 2485
 4, 4, 5, 78, 77, 2413, 2414, 2487, 2486
 5, 5, 6, 79, 78, 2414, 2415, 2488, 2487
 6, 6, 7, 80, 79, 2415, 2416, 2489, 2488
 7, 7, 8, 81, 80, 2416, 2417, 2490, 2489
 8, 8, 9, 82, 81, 2417, 2418, 2491, 2490
 9, 9, 10, 83, 82, 2418, 2419, 2492, 2491
 10, 10, 11, 84, 83, 2419, 2420, 2493, 2492
 11, 11, 12, 85, 84, 2420, 2421, 2494, 2493
 12, 12, 13, 86, 85, 2421, 2422, 2495, 2494
 13, 13, 14, 87, 86, 2422, 2423, 2496, 2495
 14, 14, 15, 88, 87, 2423, 2424, 2497, 2496
 15, 15, 16, 89, 88, 2424, 2425, 2498, 2497
 16, 16, 17, 90, 89, 2425, 2426, 2499, 2498
 17, 17, 18, 91, 90, 2426, 2427, 2500, 2499
 18, 18, 19, 92, 91, 2427, 2428, 2501, 2500
 19, 19, 20, 93, 92, 2428, 2429, 2502, 2501
 20, 20, 21, 94, 93, 2429, 2430, 2503, 2502
 21, 21, 22, 95, 94, 2430, 2431, 2504, 2503
 22, 22, 23, 96, 95, 2431, 2432, 2505, 2504
 23, 23, 24, 97, 96, 2432, 2433, 2506, 2505
 24, 24, 25, 98, 97, 2433, 2434, 2507, 2506
 25, 25, 26, 99, 98, 2434, 2435, 2508, 2507
 26, 26, 27, 100, 99, 2435, 2436, 2509, 2508
 27, 27, 28, 101, 100, 2436, 2437, 2510, 2509
 28, 28, 29, 102, 101, 2437, 2438, 2511, 2510
 29, 29, 30, 103, 102, 2438, 2439, 2512, 2511
 30, 30, 31, 104, 103, 2439, 2440, 2513, 2512
 31, 43, 44, 117, 116, 2452, 2453, 2526, 2525
 32, 44, 45, 118, 117, 2453, 2454, 2527, 2526
 33, 45, 46, 119, 118, 2454, 2455, 2528, 2527
 34, 46, 47, 120, 119, 2455, 2456, 2529, 2528
 35, 47, 48, 121, 120, 2456, 2457, 2530, 2529
 36, 48, 49, 122, 121, 2457, 2458, 2531, 2530
 37, 49, 50, 123, 122, 2458, 2459, 2532, 2531
 38, 50, 51, 124, 123, 2459, 2460, 2533, 2532
 39, 51, 52, 125, 124, 2460, 2461, 2534, 2533
 40, 52, 53, 126, 125, 2461, 2462, 2535, 2534
 41, 53, 54, 127, 126, 2462, 2463, 2536, 2535
 42, 54, 55, 128, 127, 2463, 2464, 2537, 2536
 43, 55, 56, 129, 128, 2464, 2465, 2538, 2537
 44, 56, 57, 130, 129, 2465, 2466, 2539, 2538
 45, 57, 58, 131, 130, 2466, 2467, 2540, 2539
 46, 58, 59, 132, 131, 2467, 2468, 2541, 2540
 47, 59, 60, 133, 132, 2468, 2469, 2542, 2541
 48, 60, 61, 134, 133, 2469, 2470, 2543, 2542
 49, 61, 62, 135, 134, 2470, 2471, 2544, 2543
 50, 62, 63, 136, 135, 2471, 2472, 2545, 2544
 51, 63, 64, 137, 136, 2472, 2473, 2546, 2545
 52, 64, 65, 138, 137, 2473, 2474, 2547, 2546
 53, 65, 66, 139, 138, 2474, 2475, 2548, 2547
 54, 66, 67, 140, 139, 2475, 2476, 2549, 2548
 55, 67, 68, 141, 140, 2476, 2477, 2550, 2549
 56, 68, 69, 142, 141, 2477, 2478, 2551, 2550
 57, 69, 70, 143, 142, 2478, 2479, 2552, 2551
 58, 70, 71, 144, 143, 2479, 2480, 2553, 2552
 59, 71, 72, 145, 144, 2480, 2481, 2554, 2553
 60, 72, 73, 146, 145, 2481, 2482, 2555, 2554
 61, 74, 75, 148, 147, 2483, 2484, 2557, 2556
 62, 75, 76, 149, 148, 2484, 2485, 2558, 2557
 63, 76, 77, 150, 149, 2485, 2486, 2559, 2558
 64, 77, 78, 151, 150, 2486, 2487, 2560, 2559
 65, 78, 79, 152, 151, 2487, 2488, 2561, 2560
 66, 79, 80, 153, 152, 2488, 2489, 2562, 2561
 67, 80, 81, 154, 153, 2489, 2490, 2563, 2562
 68, 81, 82, 155, 154, 2490, 2491, 2564, 2563
 69, 82, 83, 156, 155, 2491, 2492, 2565, 2564
 70, 83, 84, 157, 156, 2492, 2493, 2566, 2565
 71, 84, 85, 158, 157, 2493, 2494, 2567, 2566
 72, 85, 86, 159, 158, 2494, 2495, 2568, 2567
 73, 86, 87, 160, 159, 2495, 2496, 2569, 2568
 74, 87, 88, 161, 160, 2496, 2497, 2570, 2569
 75, 88, 89, 162, 161, 2497, 2498, 2571, 2570
 76, 89, 90, 163, 162, 2498, 2499, 2572, 2571
 77, 90, 91, 164, 163, 2499, 2500, 2573, 2572
 78, 91, 92, 165, 164, 2500, 2501, 2574, 2573
 79, 92, 93, 166, 165, 2501, 2502, 2575, 2574
 80, 93, 94, 167, 166, 2502, 2503, 2576, 2575
 81, 94, 95, 168, 167, 2503, 2504, 2577, 2576
 82, 95, 96, 169, 168, 2504, 2505, 2578, 2577
 83, 96, 97, 170, 169, 2505, 2506, 2579, 2578
 84, 97, 98, 171, 170, 2506, 2507, 2580, 2579
 85, 98, 99, 172, 171, 2507, 2508, 2581, 2580
 86, 99, 100, 173, 172, 2508, 2509, 2582, 2581
 87, 100, 101, 174, 173, 2509, 2510, 2583, 2582
 88, 101, 102, 175, 174, 2510, 2511, 2584, 2583
 89, 102, 103, 176, 175, 2511, 2512, 2585, 2584
 90, 103, 104, 177, 176, 2512, 2513, 2586, 2585
 91, 116, 117, 190, 189, 2525, 2526, 2599, 2598
 92, 117, 118, 191, 190, 2526, 2527, 2600, 2599
 93, 118, 119, 192, 191, 2527, 2528, 2601, 2600
 94, 119, 120, 193, 192, 2528, 2529, 2602, 2601
 95, 120, 121, 194, 193, 2529, 2530, 2603, 2602
 96, 121, 122, 195, 194, 2530, 2531, 2604, 2603
 97, 122, 123, 196, 195, 2531, 2532, 2605, 2604
 98, 123, 124, 197, 196, 2532, 2533, 2606, 2605
 99, 124, 125, 198, 197, 2533, 2534, 2607, 2606
 100, 125, 126, 199, 198, 2534, 2535, 2608, 2607
 101, 126, 127, 200, 199, 2535, 2536, 2609, 2608
 102, 127, 128, 201, 200, 2536, 2537, 2610, 2609
 103, 128, 129, 202, 201, 2537, 2538, 2611, 2610
 104, 129, 130, 203, 202, 2538, 2539, 2612, 2611
 105, 130, 131, 204, 203, 2539, 2540, 2613, 2612
 106, 131, 132, 205, 204, 2540, 2541, 2614, 2613
 107, 132, 133, 206, 205, 2541, 2542, 2615, 2614
 108, 133, 134, 207, 206, 2542, 2543, 2616, 2615
 109, 134, 135, 208, 207, 2543, 2544, 2617, 2616
 110, 135, 136, 209, 208, 2544, 2545, 2618, 2617
 111, 136, 137, 210, 209, 2545, 2546, 2619, 2618
 112, 137, 138, 211, 210, 2546, 2547, 2620, 2619
 113, 138, 139, 212, 211, 2547, 2548, 2621, 2620
 114, 139, 140, 213, 212, 2548, 2549, 2622, 2621
 115, 140, 141, 214, 213, 2549, 2550, 2623, 2622
 116, 141, 142, 215, 214, 2550, 2551, 2624, 2623
 117, 142, 143, 216, 215, 2551, 2552, 2625, 2624
 118, 143, 144, 217, 216, 2552, 2553, 2626, 2625
 119, 144, 145, 218, 217, 2553, 2554, 2627, 2626
 120, 145, 146, 219, 218, 2554, 2555, 2628, 2627
 121, 147, 148, 221, 220, 2556, 2557, 2630, 2629
 122, 148, 149, 222, 221, 2557, 2558, 2631, 2630
 123, 149, 150, 223, 222, 2558, 2559, 2632, 2631
 124, 150, 151, 224, 223, 2559, 2560, 2633, 2632
 125, 151, 152, 225, 224, 2560, 2561, 2634, 2633
 126, 152, 153, 226, 225, 2561, 2562, 2635, 2634
 127, 153, 154, 227, 226, 2562, 2563, 2636, 2635
 128, 154, 155, 228, 227, 2563, 2564, 2637, 2636
 129, 155, 156, 229, 228, 2564, 2565, 2638, 2637
 130, 156, 157, 230, 229, 2565, 2566, 2639, 2638
 131, 157, 158, 231, 230, 2566, 2567, 2640, 2639
 132, 158, 159, 232, 231, 2567, 2568, 2641, 2640
 133, 159, 160, 233, 232, 2568, 2569, 2642, 2641
 134, 160, 161, 234, 233, 2569, 2570, 2643, 2642
 135, 161, 162, 235, 234, 2570, 2571, 2644, 2643
 136, 162, 163, 236, 235, 2571, 2572, 2645, 2644
 137, 163, 164, 237, 236, 2572, 2573, 2646, 2645
 138, 164, 165, 238, 237, 2573, 2574, 2647, 2646
 139, 165, 166, 239, 238, 2574, 2575, 2648, 2647
 140, 166, 167, 240, 239, 2575, 2576, 2649, 2648
 141, 167, 168, 241, 240, 2576, 2577, 2650, 2649
 142, 168, 169, 242, 241, 2577, 2578, 2651, 2650
 143, 169, 170, 243, 242, 2578, 2579, 2652, 2651
 144, 170, 171, 244, 243, 2579, 2580, 2653, 2652
 145, 171, 172, 245, 244, 2580, 2581, 2654, 2653
 146, 172, 173, 246, 245, 2581, 2582, 2655, 2654
 147, 173, 174, 247, 246, 2582, 2583, 2656, 2655
 148, 174, 175, 248, 247, 2583, 2584, 2657, 2656
 149, 175, 176, 249, 248, 2584, 2585, 2658, 2657
 150, 176, 177, 250, 249, 2585, 2586, 2659, 2658
 151, 189, 190, 263, 262, 2598, 2599, 2672, 2671
 152, 190, 191, 264, 263, 2599, 2600, 2673, 2672
 153, 191, 192, 265, 264, 2600, 2601, 2674, 2673
 154, 192, 193, 266, 265, 2601, 2602, 2675, 2674
 155, 193, 194, 267, 266, 2602, 2603, 2676, 2675
 156, 194, 195, 268, 267, 2603, 2604, 2677, 2676
 157, 195, 196, 269, 268, 2604, 2605, 2678, 2677
 158, 196, 197, 270, 269, 2605, 2606, 2679, 2678
 159, 197, 198, 271, 270, 2606, 2607, 2680, 2679
 160, 198, 199, 272, 271, 2607, 2608, 2681, 2680
 161, 199, 200, 273, 272, 2608, 2609, 2682, 2681
 162, 200, 201, 274, 273, 2609, 2610, 2683, 2682
 163, 201, 202, 275, 274, 2610, 2611, 2684, 2683
 164, 202, 203, 276, 275, 2611, 2612, 2685, 2684
 165, 203, 204, 277, 276, 2612, 2613, 2686, 2685
 166, 204, 205, 278, 277, 2613, 2614, 2687, 2686
 167, 205, 206, 279, 278, 2614, 2615, 2688, 2687
 168, 206, 207, 280, 279, 2615, 2616, 2689, 2688
 169, 207, 208, 281, 280, 2616, 2617, 2690, 2689
 170, 208, 209, 282, 281, 2617, 2618, 2691, 2690
 171, 209, 210, 283, 282, 2618, 2619, 2692, 2691
 172, 210, 211, 284, 283, 2619, 2620, 2693, 2692
 173, 211, 212, 285, 284, 2620, 2621, 2694, 2693
 174, 212, 213, 286, 285, 2621, 2622, 2695, 2694
 175, 213, 214, 287, 286, 2622, 2623, 2696, 2695
 176, 214, 215, 288, 287, 2623, 2624, 2697, 2696
 177, 215, 216, 289, 288, 2624, 2625, 2698, 2697
 178, 216, 217, 290, 289, 2625, 2626, 2699, 2698
 179, 217, 218, 291, 290, 2626, 2627, 2700, 2699
 180, 218, 219, 292, 291, 2627, 2628, 2701, 2700
 181, 220, 221, 294, 293, 2629, 2630, 2703, 2702
 182, 221, 222, 295, 294, 2630, 2631, 2704, 2703
 183, 222, 223, 296, 295, 2631, 2632, 2705, 2704
 184, 223, 224, 297, 296, 2632, 2633, 2706, 2705
 185, 224, 225, 298, 297, 2633, 2634, 2707, 2706
 186, 225, 226, 299, 298, 2634, 2635, 2708, 2707
 187, 226, 227, 300, 299, 2635, 2636, 2709, 2708
 188, 227, 228, 301, 300, 2636, 2637, 2710, 2709
 189, 228, 229, 302, 301, 2637, 2638, 2711, 2710
 190, 229, 230, 303, 302, 2638, 2639, 2712, 2711
 191, 230, 231, 304, 303, 2639, 2640, 2713, 2712
 192, 231, 232, 305, 304, 2640, 2641, 2714, 2713
 193, 232, 233, 306, 305, 2641, 2642, 2715, 2714
 194, 233, 234, 307, 306, 2642, 2643, 2716, 2715
 195, 234, 235, 308, 307, 2643, 2644, 2717, 2716
 196, 235, 236, 309, 308, 2644, 2645, 2718, 2717
 197, 236, 237, 310, 309, 2645, 2646, 2719, 2718
 198, 237, 238, 311, 310, 2646, 2647, 2720, 2719
 199, 238, 239, 312, 311, 2647, 2648, 2721, 2720
 200, 239, 240, 313, 312, 2648, 2649, 2722, 2721
 201, 240, 241, 314, 313, 2649, 2650, 2723, 2722
 202, 241, 242, 315, 314, 2650, 2651, 2724, 2723
 203, 242, 243, 316, 315, 2651, 2652, 2725, 2724
 204, 243, 244, 317, 316, 2652, 2653, 2726, 2725
 205, 244, 245, 318, 317, 2653, 2654, 2727, 2726
 206, 245, 246, 319, 318, 2654, 2655, 2728, 2727
 207, 246, 247, 320, 319, 2655, 2656, 2729, 2728
 208, 247, 248, 321, 320, 2656, 2657, 2730, 2729
 209, 248, 249, 322, 321, 2657, 2658, 2731, 2730
 210, 249, 250, 323, 322, 2658, 2659, 2732, 2731
 211, 262, 263, 336, 335, 2671, 2672, 2745, 2744
 212, 263, 264, 337, 336, 2672, 2673, 2746, 2745
 213, 264, 265, 338, 337, 2673, 2674, 2747, 2746
 214, 265, 266, 339, 338, 2674, 2675, 2748, 2747
 215, 266, 267, 340, 339, 2675, 2676, 2749, 2748
 216, 267, 268, 341, 340, 2676, 2677, 2750, 2749
 217, 268, 269, 342, 341, 2677, 2678, 2751, 2750
 218, 269, 270, 343, 342, 2678, 2679, 2752, 2751
 219, 270, 271, 344, 343, 2679, 2680, 2753, 2752
 220, 271, 272, 345, 344, 2680, 2681, 2754, 2753
 221, 272, 273, 346, 345, 2681, 2682, 2755, 2754
 222, 273, 274, 347, 346, 2682, 2683, 2756, 2755
 223, 274, 275, 348, 347, 2683, 2684, 2757, 2756
 224, 275, 276, 349, 348, 2684, 2685, 2758, 2757
 225, 276, 277, 350, 349, 2685, 2686, 2759, 2758
 226, 277, 278, 351, 350, 2686, 2687, 2760, 2759
 227, 278, 279, 352, 351, 2687, 2688, 2761, 2760
 228, 279, 280, 353, 352, 2688, 2689, 2762, 2761
 229, 280, 281, 354, 353, 2689, 2690, 2763, 2762
 230, 281, 282, 355, 354, 2690, 2691, 2764, 2763
 231, 282, 283, 356, 355, 2691, 2692, 2765, 2764
 232, 283, 284, 357, 356, 2692, 2693, 2766, 2765
 233, 284, 285, 358, 357, 2693, 2694, 2767, 2766
 234, 285, 286, 359, 358, 2694, 2695, 2768, 2767
 235, 286, 287, 360, 359, 2695, 2696, 2769, 2768
 236, 287, 288, 361, 360, 2696, 2697, 2770, 2769
 237, 288, 289, 362, 361, 2697, 2698, 2771, 2770
 238, 289, 290, 363, 362, 2698, 2699, 2772, 2771
 239, 290, 291, 364, 363, 2699, 2700, 2773, 2772
 240, 291, 292, 365, 364, 2700, 2701, 2774, 2773
 241, 293, 294, 367, 366, 2702, 2703, 2776, 2775
 242, 294, 295, 368, 367, 2703, 2704, 2777, 2776
 243, 295, 296, 369, 368, 2704, 2705, 2778, 2777
 244, 296, 297, 370, 369, 2705, 2706, 2779, 2778
 245, 297, 298, 371, 370, 2706, 2707, 2780, 2779
 246, 298, 299, 372, 371, 2707, 2708, 2781, 2780
 247, 299, 300, 373, 372, 2708, 2709, 2782, 2781
 248, 300, 301, 374, 373, 2709, 2710, 2783, 2782
 249, 301, 302, 375, 374, 2710, 2711, 2784, 2783
 250, 302, 303, 376, 375, 2711, 2712, 2785, 2784
 251, 303, 304, 377, 376, 2712, 2713, 2786, 2785
 252, 304, 305, 378, 377, 2713, 2714, 2787, 2786
 253, 305, 306, 379, 378, 2714, 2715, 2788, 2787
 254, 306, 307, 380, 379, 2715, 2716, 2789, 2788
 255, 307, 308, 381, 380, 2716, 2717, 2790, 2789
 256, 308, 309, 382, 381, 2717, 2718, 2791, 2790
 257, 309, 310, 383, 382, 2718, 2719, 2792, 2791
 258, 310, 311, 384, 383, 2719, 2720, 2793, 2792
 259, 311, 312, 385, 384, 2720, 2721, 2794, 2793
 260, 312, 313, 386, 385, 2721, 2722, 2795, 2794
 261, 313, 314, 387, 386, 2722, 2723, 2796, 2795
 262, 314, 315, 388, 387, 2723, 2724, 2797, 2796
 263, 315, 316, 389, 388, 2724, 2725, 2798, 2797
 264, 316, 317, 390, 389, 2725, 2726, 2799, 2798
 265, 317, 318, 391, 390, 2726, 2727, 2800, 2799
 266, 318, 319, 392, 391, 2727, 2728, 2801, 2800
 267, 319, 320, 393, 392, 2728, 2729, 2802, 2801
 268, 320, 321, 394, 393, 2729, 2730, 2803, 2802
 269, 321, 322, 395, 394, 2730, 2731, 2804, 2803
 270, 322, 323, 396, 395, 2731, 2732, 2805, 2804
 271, 335, 336, 409, 408, 2744, 2745, 2818, 2817
 272, 336, 337, 410, 409, 2745, 2746, 2819, 2818
 273, 337, 338, 411, 410, 2746, 2747, 2820, 2819
 274, 338, 339, 412, 411, 2747, 2748, 2821, 2820
 275, 339, 340, 413, 412, 2748, 2749, 2822, 2821
 276, 340, 341, 414, 413, 2749, 2750, 2823, 2822
 277, 341, 342, 415, 414, 2750, 2751, 2824, 2823
 278, 342, 343, 416, 415, 2751, 2752, 2825, 2824
 279, 343, 344, 417, 416, 2752, 2753, 2826, 2825
 280, 344, 345, 418, 417, 2753, 2754, 2827, 2826
 281, 345, 346, 419, 418, 2754, 2755, 2828, 2827
 282, 346, 347, 420, 419, 2755, 2756, 2829, 2828
 283, 347, 348, 421, 420, 2756, 2757, 2830, 2829
 284, 348, 349, 422, 421, 2757, 2758, 2831, 2830
 285, 349, 350, 423, 422, 2758, 2759, 2832, 2831
 286, 350, 351, 424, 423, 2759, 2760, 2833, 2832
 287, 351, 352, 425, 424, 2760, 2761, 2834, 2833
 288, 352, 353, 426, 425, 2761, 2762, 2835, 2834
 289, 353, 354, 427, 426, 2762, 2763, 2836, 2835
 290, 354, 355, 428, 427, 2763, 2764, 2837, 2836
 291, 355, 356, 429, 428, 2764, 2765, 2838, 2837
 292, 356, 357, 430, 429, 2765, 2766, 2839, 2838
 293, 357, 358, 431, 430, 2766, 2767, 2840, 2839
 294, 358, 359, 432, 431, 2767, 2768, 2841, 2840
 295, 359, 360, 433, 432, 2768, 2769, 2842, 2841
 296, 360, 361, 434, 433, 2769, 2770, 2843, 2842
 297, 361, 362, 435, 434, 2770, 2771, 2844, 2843
 298, 362, 363, 436, 435, 2771, 2772, 2845, 2844
 299, 363, 364, 437, 436, 2772, 2773, 2846, 2845
 300, 364, 365, 438, 437, 2773, 2774, 2847, 2846
 301, 366, 367, 440, 439, 2775, 2776, 2849, 2848
 302, 367, 368, 441, 440, 2776, 2777, 2850, 2849
 303, 368, 369, 442, 441, 2777, 2778, 2851, 2850
 304, 369, 370, 443, 442, 2778, 2779, 2852, 2851
 305, 370, 371, 444, 443, 2779, 2780, 2853, 2852
 306, 371, 372, 445, 444, 2780, 2781, 2854, 2853
 307, 372, 373, 446, 445, 2781, 2782, 2855, 2854
 308, 373, 374, 447, 446, 2782, 2783, 2856, 2855
 309, 374, 375, 448, 447, 2783, 2784, 2857, 2856
 310, 375, 376, 449, 448, 2784, 2785, 2858, 2857
 311, 376, 377, 450, 449, 2785, 2786, 2859, 2858
 312, 377, 378, 451, 450, 2786, 2787, 2860, 2859
 313, 378, 379, 452, 451, 2787, 2788, 2861, 2860
 314, 379, 380, 453, 452, 2788, 2789, 2862, 2861
 315, 380, 381, 454, 453, 2789, 2790, 2863, 2862
 316, 381, 382, 455, 454, 2790, 2791, 2864, 2863
 317, 382, 383, 456, 455, 2791, 2792, 2865, 2864
 318, 383, 384, 457, 456, 2792, 2793, 2866, 2865
 319, 384, 385, 458, 457, 2793, 2794, 2867, 2866
 320, 385, 386, 459, 458, 2794, 2795, 2868, 2867
 321, 386, 387, 460, 459, 2795, 2796, 2869, 2868
 322, 387, 388, 461, 460, 2796, 2797, 2870, 2869
 323, 388, 389, 462, 461, 2797, 2798, 2871, 2870
 324, 389, 390, 463, 462, 2798, 2799, 2872, 2871
 325, 390, 391, 464, 463, 2799, 2800, 2873, 2872
 326, 391, 392, 465, 464, 2800, 2801, 2874, 2873
 327, 392, 393, 466, 465, 2801, 2802, 2875, 2874
 328, 393, 394, 467, 466, 2802, 2803, 2876, 2875
 329, 394, 395, 468, 467, 2803, 2804, 2877, 2876
 330, 395, 396, 469, 468, 2804, 2805, 2878, 2877
 331, 408, 409, 482, 481, 2817, 2818, 2891, 2890
 332, 409, 410, 483, 482, 2818, 2819, 2892, 2891
 333, 410, 411, 484, 483, 2819, 2820, 2893, 2892
 334, 411, 412, 485, 484, 2820, 2821, 2894, 2893
 335, 412, 413, 486, 485, 2821, 2822, 2895, 2894
 336, 413, 414, 487, 486, 2822, 2823, 2896, 2895
 337, 414, 415, 488, 487, 2823, 2824, 2897, 2896
 338, 415, 416, 489, 488, 2824, 2825, 2898, 2897
 339, 416, 417, 490, 489, 2825, 2826, 2899, 2898
 340, 417, 418, 491, 490, 2826, 2827, 2900, 2899
 341, 418, 419, 492, 491, 2827, 2828, 2901, 2900
 342, 419, 420, 493, 492, 2828, 2829, 2902, 2901
 343, 420, 421, 494, 493, 2829, 2830, 2903, 2902
 344, 421, 422, 495, 494, 2830, 2831, 2904, 2903
 345, 422, 423, 496, 495, 2831, 2832, 2905, 2904
 346, 423, 424, 497, 496, 2832, 2833, 2906, 2905
 347, 424, 425, 498, 497, 2833, 2834, 2907, 2906
 348, 425, 426, 499, 498, 2834, 2835, 2908, 2907
 349, 426, 427, 500, 499, 2835, 2836, 2909, 2908
 350, 427, 428, 501, 500, 2836, 2837, 2910, 2909
 351, 428, 429, 502, 501, 2837, 2838, 2911, 2910
 352, 429, 430, 503, 502, 2838, 2839, 2912, 2911
 353, 430, 431, 504, 503, 2839, 2840, 2913, 2912
 354, 431, 432, 505, 504, 2840, 2841, 2914, 2913
 355, 432, 433, 506, 505, 2841, 2842, 2915, 2914
 356, 433, 434, 507, 506, 2842, 2843, 2916, 2915
 357, 434, 435, 508, 507, 2843, 2844, 2917, 2916
 358, 435, 436, 509, 508, 2844, 2845, 2918, 2917
 359, 436, 437, 510, 509, 2845, 2846, 2919, 2918
 360, 437, 438, 511, 510, 2846, 2847, 2920, 2919
 361, 439, 440, 513, 512, 2848, 2849, 2922, 2921
 362, 440, 441, 514, 513, 2849, 2850, 2923, 2922
 363, 441, 442, 515, 514, 2850, 2851, 2924, 2923
 364, 442, 443, 516, 515, 2851, 2852, 2925, 2924
 365, 443, 444, 517, 516, 2852, 2853, 2926, 2925
 366, 444, 445, 518, 517, 2853, 2854, 2927, 2926
 367, 445, 446, 519, 518, 2854, 2855, 2928, 2927
 368, 446, 447, 520, 519, 2855, 2856, 2929, 2928
 369, 447, 448, 521, 520, 2856, 2857, 2930, 2929
 370, 448, 449, 522, 521, 2857, 2858, 2931, 2930
 371, 449, 450, 523, 522, 2858, 2859, 2932, 2931
 372, 450, 451, 524, 523, 2859, 2860, 2933, 2932
 373, 451, 452, 525, 524, 2860, 2861, 2934, 2933
 374, 452, 453, 526, 525, 2861, 2862, 2935, 2934
 375, 453, 454, 527, 526, 2862, 2863, 2936, 2935
 376, 454, 455, 528, 527, 2863, 2864, 2937, 2936
 377, 455, 456, 529, 528, 2864, 2865, 2938, 2937
 378, 456, 457, 530, 529, 2865, 2866, 2939, 2938
 379, 457, 458, 531, 530, 2866, 2867, 2940, 2939
 380, 458, 459, 532, 531, 2867, 2868, 2941, 2940
 381, 459, 460, 533, 532, 2868, 2869, 2942, 2941
 382, 460, 461, 534, 533, 2869, 2870, 2943, 2942
 383, 461, 462, 535, 534, 2870, 2871, 2944, 2943
 384, 462, 463, 536, 535, 2871, 2872, 2945, 2944
 385, 463, 464, 537, 536, 2872, 2873, 2946, 2945
 386, 464, 465, 538, 537, 2873, 2874, 2947, 2946
 387, 465, 466, 539, 538, 2874, 2875, 2948, 2947
 388, 466, 467, 540, 539, 2875, 2876, 2949, 2948
 389, 467, 468, 541, 540, 2876, 2877, 2950, 2949
 390, 468, 469, 542, 541, 2877, 2878, 2951, 2950
 391, 481, 482, 555, 554, 2890, 2891, 2964, 2963
 392, 482, 483, 556, 555, 2891, 2892, 2965, 2964
 393, 483, 484, 557, 556, 2892, 2893, 2966, 2965
 394, 484, 485, 558, 557, 2893, 2894, 2967, 2966
 395, 485, 486, 559, 558, 2894, 2895, 2968, 2967
 396, 486, 487, 560, 559, 2895, 2896, 2969, 2968
 397, 487, 488, 561, 560, 2896, 2897, 2970, 2969
 398, 488, 489, 562, 561, 2897, 2898, 2971, 2970
 399, 489, 490, 563, 562, 2898, 2899, 2972, 2971
 400, 490, 491, 564, 563, 2899, 2900, 2973, 2972
 401, 491, 492, 565, 564, 2900, 2901, 2974, 2973
 402, 492, 493, 566, 565, 2901, 2902, 2975, 2974
 403, 493, 494, 567, 566, 2902, 2903, 2976, 2975
 404, 494, 495, 568, 567, 2903, 2904, 2977, 2976
 405, 495, 496, 569, 568, 2904, 2905, 2978, 2977
 406, 496, 497, 570, 569, 2905, 2906, 2979, 2978
 407, 497, 498, 571, 570, 2906, 2907, 2980, 2979
 408, 498, 499, 572, 571, 2907, 2908, 2981, 2980
 409, 499, 500, 573, 572, 2908, 2909, 2982, 2981
 410, 500, 501, 574, 573, 2909, 2910, 2983, 2982
 411, 501, 502, 575, 574, 2910, 2911, 2984, 2983
 412, 502, 503, 576, 575, 2911, 2912, 2985, 2984
 413, 503, 504, 577, 576, 2912, 2913, 2986, 2985
 414, 504, 505, 578, 577, 2913, 2914, 2987, 2986
 415, 505, 506, 579, 578, 2914, 2915, 2988, 2987
 416, 506, 507, 580, 579, 2915, 2916, 2989, 2988
 417, 507, 508, 581, 580, 2916, 2917, 2990, 2989
 418, 508, 509, 582, 581, 2917, 2918, 2991, 2990
 419, 509, 510, 583, 582, 2918, 2919, 2992, 2991
 420, 510, 511, 584, 583, 2919, 2920, 2993, 2992
 421, 512, 513, 586, 585, 2921, 2922, 2995, 2994
 422, 513, 514, 587, 586, 2922, 2923, 2996, 2995
 423, 514, 515, 588, 587, 2923, 2924, 2997, 2996
 424, 515, 516, 589, 588, 2924, 2925, 2998, 2997
 425, 516, 517, 590, 589, 2925, 2926, 2999, 2998
 426, 517, 518, 591, 590, 2926, 2927, 3000, 2999
 427, 518, 519, 592, 591, 2927, 2928, 3001, 3000
 428, 519, 520, 593, 592, 2928, 2929, 3002, 3001
 429, 520, 521, 594, 593, 2929, 2930, 3003, 3002
 430, 521, 522, 595, 594, 2930, 2931, 3004, 3003
 431, 522, 523, 596, 595, 2931, 2932, 3005, 3004
 432, 523, 524, 597, 596, 2932, 2933, 3006, 3005
 433, 524, 525, 598, 597, 2933, 2934, 3007, 3006
 434, 525, 526, 599, 598, 2934, 2935, 3008, 3007
 435, 526, 527, 600, 599, 2935, 2936, 3009, 3008
 436, 527, 528, 601, 600, 2936, 2937, 3010, 3009
 437, 528, 529, 602, 601, 2937, 2938, 3011, 3010
 438, 529, 530, 603, 602, 2938, 2939, 3012, 3011
 439, 530, 531, 604, 603, 2939, 2940, 3013, 3012
 440, 531, 532, 605, 604, 2940, 2941, 3014, 3013
 441, 532, 533, 606, 605, 2941, 2942, 3015, 3014
 442, 533, 534, 607, 606, 2942, 2943, 3016, 3015
 443, 534, 535, 608, 607, 2943, 2944, 3017, 3016
 444, 535, 536, 609, 608, 2944, 2945, 3018, 3017
 445, 536, 537, 610, 609, 2945, 2946, 3019, 3018
 446, 537, 538, 611, 610, 2946, 2947, 3020, 3019
 447, 538, 539, 612, 611, 2947, 2948, 3021, 3020
 448, 539, 540, 613, 612, 2948, 2949, 3022, 3021
 449, 540, 541, 614, 613, 2949, 2950, 3023, 3022
 450, 541, 542, 615, 614, 2950, 2951, 3024, 3023
 451, 554, 555, 628, 627, 2963, 2964, 3037, 3036
 452, 555, 556, 629, 628, 2964, 2965, 3038, 3037
 453, 556, 557, 630, 629, 2965, 2966, 3039, 3038
 454, 557, 558, 631, 630, 2966, 2967, 3040, 3039
 455, 558, 559, 632, 631, 2967, 2968, 3041, 3040
 456, 559, 560, 633, 632, 2968, 2969, 3042, 3041
 457, 560, 561, 634, 633, 2969, 2970, 3043, 3042
 458, 561, 562, 635, 634, 2970, 2971, 3044, 3043
 459, 562, 563, 636, 635, 2971, 2972, 3045, 3044
 460, 563, 564, 637, 636, 2972, 2973, 3046, 3045
 461, 564, 565, 638, 637, 2973, 2974, 3047, 3046
 462, 565, 566, 639, 638, 2974, 2975, 3048, 3047
 463, 566, 567, 640, 639, 2975, 2976, 3049, 3048
 464, 567, 568, 641, 640, 2976, 2977, 3050, 3049
 465, 568, 569, 642, 641, 2977, 2978, 3051, 3050
 466, 569, 570, 643, 642, 2978, 2979, 3052, 3051
 467, 570, 571, 644, 643, 2979, 2980, 3053, 3052
 468, 571, 572, 645, 644, 2980, 2981, 3054, 3053
 469, 572, 573, 646, 645, 2981, 2982, 3055, 3054
 470, 573, 574, 647, 646, 2982, 2983, 3056, 3055
 471, 574, 575, 648, 647, 2983, 2984, 3057, 3056
 472, 575, 576, 649, 648, 2984, 2985, 3058, 3057
 473, 576, 577, 650, 649, 2985, 2986, 3059, 3058
 474, 577, 578, 651, 650, 2986, 2987, 3060, 3059
 475, 578, 579, 652, 651, 2987, 2988, 3061, 3060
 476, 579, 580, 653, 652, 2988, 2989, 3062, 3061
 477, 580, 581, 654, 653, 2989, 2990, 3063, 3062
 478, 581, 582, 655, 654, 2990, 2991, 3064, 3063
 479, 582, 583, 656, 655, 2991, 2992, 3065, 3064
 480, 583, 584, 657, 656, 2992, 2993, 3066, 3065
 481, 585, 586, 659, 658, 2994, 2995, 3068, 3067
 482, 586, 587, 660, 659, 2995, 2996, 3069, 3068
 483, 587, 588, 661, 660, 2996, 2997, 3070, 3069
 484, 588, 589, 662, 661, 2997, 2998, 3071, 3070
 485, 589, 590, 663, 662, 2998, 2999, 3072, 3071
 486, 590, 591, 664, 663, 2999, 3000, 3073, 3072
 487, 591, 592, 665, 664, 3000, 3001, 3074, 3073
 488, 592, 593, 666, 665, 3001, 3002, 3075, 3074
 489, 593, 594, 667, 666, 3002, 3003, 3076, 3075
 490, 594, 595, 668, 667, 3003, 3004, 3077, 3076
 491, 595, 596, 669, 668, 3004, 3005, 3078, 3077
 492, 596, 597, 670, 669, 3005, 3006, 3079, 3078
 493, 597, 598, 671, 670, 3006, 3007, 3080, 3079
 494, 598, 599, 672, 671, 3007, 3008, 3081, 3080
 495, 599, 600, 673, 672, 3008, 3009, 3082, 3081
 496, 600, 601, 674, 673, 3009, 3010, 3083, 3082
 497, 601, 602, 675, 674, 3010, 3011, 3084, 3083
 498, 602, 603, 676, 675, 3011, 3012, 3085, 3084
 499, 603, 604, 677, 676, 3012, 3013, 3086, 3085
 500, 604, 605, 678, 677, 3013, 3014, 3087, 3086
 501, 605, 606, 679, 678, 3014, 3015, 3088, 3087
 502, 606, 607, 680, 679, 3015, 3016, 3089, 3088
 503, 607, 608, 681, 680, 3016, 3017, 3090, 3089
 504, 608, 609, 682, 681, 3017, 3018, 3091, 3090
 505, 609, 610, 683, 682, 3018, 3019, 3092, 3091
 506, 610, 611, 684, 683, 3019, 3020, 3093, 3092
 507, 611, 612, 685, 684, 3020, 3021, 3094, 3093
 508, 612, 613, 686, 685, 3021, 3022, 3095, 3094
 509, 613, 614, 687, 686, 3022, 3023, 3096, 3095
 510, 614, 615, 688, 687, 3023, 3024, 3097, 3096
 511, 627, 628, 701, 700, 3036, 3037, 3110, 3109
 512, 628, 629, 702, 701, 3037, 3038, 3111, 3110
 513, 629, 630, 703, 702, 3038, 3039, 3112, 3111
 514, 630, 631, 704, 703, 3039, 3040, 3113, 3112
 515, 631, 632, 705, 704, 3040, 3041, 3114, 3113
 516, 632, 633, 706, 705, 3041, 3042, 3115, 3114
 517, 633, 634, 707, 706, 3042, 3043, 3116, 3115
 518, 634, 635, 708, 707, 3043, 3044, 3117, 3116
 519, 635, 636, 709, 708, 3044, 3045, 3118, 3117
 520, 636, 637, 710, 709, 3045, 3046, 3119, 3118
 521, 637, 638, 711, 710, 3046, 3047, 3120, 3119
 522, 638, 639, 712, 711, 3047, 3048, 3121, 3120
 523, 639, 640, 713, 712, 3048, 3049, 3122, 3121
 524, 640, 641, 714, 713, 3049, 3050, 3123, 3122
 525, 641, 642, 715, 714, 3050, 3051, 3124, 3123
 526, 642, 643, 716, 715, 3051, 3052, 3125, 3124
 527, 643, 644, 717, 716, 3052, 3053, 3126, 3125
 528, 644, 645, 718, 717, 3053, 3054, 3127, 3126
 529, 645, 646, 719, 718, 3054, 3055, 3128, 3127
 530, 646, 647, 720, 719, 3055, 3056, 3129, 3128
 531, 647, 648, 721, 720, 3056, 3057, 3130, 3129
 532, 648, 649, 722, 721, 3057, 3058, 3131, 3130
 533, 649, 650, 723, 722, 3058, 3059, 3132, 3131
 534, 650, 651, 724, 723, 3059, 3060, 3133, 3132
 535, 651, 652, 725, 724, 3060, 3061, 3134, 3133
 536, 652, 653, 726, 725, 3061, 3062, 3135, 3134
 537, 653, 654, 727, 726, 3062, 3063, 3136, 3135
 538, 654, 655, 728, 727, 3063, 3064, 3137, 3136
 539, 655, 656, 729, 728, 3064, 3065, 3138, 3137
 540, 656, 657, 730, 729, 3065, 3066, 3139, 3138
 541, 658, 659, 732, 731, 3067, 3068, 3141, 3140
 542, 659, 660, 733, 732, 3068, 3069, 3142, 3141
 543, 660, 661, 734, 733, 3069, 3070, 3143, 3142
 544, 661, 662, 735, 734, 3070, 3071, 3144, 3143
 545, 662, 663, 736, 735, 3071, 3072, 3145, 3144
 546, 663, 664, 737, 736, 3072, 3073, 3146, 3145
 547, 664, 665, 738, 737, 3073, 3074, 3147, 3146
 548, 665, 666, 739, 738, 3074, 3075, 3148, 3147
 549, 666, 667, 740, 739, 3075, 3076, 3149, 3148
 550, 667, 668, 741, 740, 3076, 3077, 3150, 3149
 551, 668, 669, 742, 741, 3077, 3078, 3151, 3150
 552, 669, 670, 743, 742, 3078, 3079, 3152, 3151
 553, 670, 671, 744, 743, 3079, 3080, 3153, 3152
 554, 671, 672, 745, 744, 3080, 3081, 3154, 3153
 555, 672, 673, 746, 745, 3081, 3082, 3155, 3154
 556, 673, 674, 747, 746, 3082, 3083, 3156, 3155
 557, 674, 675, 748, 747, 3083, 3084, 3157, 3156
 558, 675, 676, 749, 748, 3084, 3085, 3158, 3157
 559, 676, 677, 750, 749, 3085, 3086, 3159, 3158
 560, 677, 678, 751, 750, 3086, 3087, 3160, 3159
 561, 678, 679, 752, 751, 3087, 3088, 3161, 3160
 562, 679, 680, 753, 752, 3088, 3089, 3162, 3161
 563, 680, 681, 754, 753, 3089, 3090, 3163, 3162
 564, 681, 682, 755, 754, 3090, 3091, 3164, 3163
 565, 682, 683, 756, 755, 3091, 3092, 3165, 3164
 566, 683, 684, 757, 756, 3092, 3093, 3166, 3165
 567, 684, 685, 758, 757, 3093, 3094, 3167, 3166
 568, 685, 686, 759, 758, 3094, 3095, 3168, 3167
 569, 686, 687, 760, 759, 3095, 3096, 3169, 3168
 570, 687, 688, 761, 760, 3096, 3097, 3170, 3169
 571, 700, 701, 774, 773, 3109, 3110, 3183, 3182
 572, 701, 702, 775, 774, 3110, 3111, 3184, 3183
 573, 702, 703, 776, 775, 3111, 3112, 3185, 3184
 574, 703, 704, 777, 776, 3112, 3113, 3186, 3185
 575, 704, 705, 778, 777, 3113, 3114, 3187, 3186
 576, 705, 706, 779, 778, 3114, 3115, 3188, 3187
 577, 706, 707, 780, 779, 3115, 3116, 3189, 3188
 578, 707, 708, 781, 780, 3116, 3117, 3190, 3189
 579, 708, 709, 782, 781, 3117, 3118, 3191, 3190
 580, 709, 710, 783, 782, 3118, 3119, 3192, 3191
 581, 710, 711, 784, 783, 3119, 3120, 3193, 3192
 582, 711, 712, 785, 784, 3120, 3121, 3194, 3193
 583, 712, 713, 786, 785, 3121, 3122, 3195, 3194
 584, 713, 714, 787, 786, 3122, 3123, 3196, 3195
 585, 714, 715, 788, 787, 3123, 3124, 3197, 3196
 586, 715, 716, 789, 788, 3124, 3125, 3198, 3197
 587, 716, 717, 790, 789, 3125, 3126, 3199, 3198
 588, 717, 718, 791, 790, 3126, 3127, 3200, 3199
 589, 718, 719, 792, 791, 3127, 3128, 3201, 3200
 590, 719, 720, 793, 792, 3128, 3129, 3202, 3201
 591, 720, 721, 794, 793, 3129, 3130, 3203, 3202
 592, 721, 722, 795, 794, 3130, 3131, 3204, 3203
 593, 722, 723, 796, 795, 3131, 3132, 3205, 3204
 594, 723, 724, 797, 796, 3132, 3133, 3206, 3205
 595, 724, 725, 798, 797, 3133, 3134, 3207, 3206
 596, 725, 726, 799, 798, 3134, 3135, 3208, 3207
 597, 726, 727, 800, 799, 3135, 3136, 3209, 3208
 598, 727, 728, 801, 800, 3136, 3137, 3210, 3209
 599, 728, 729, 802, 801, 3137, 3138, 3211, 3210
 600, 729, 730, 803, 802, 3138, 3139, 3212, 3211
 601, 731, 732, 805, 804, 3140, 3141, 3214, 3213
 602, 732, 733, 806, 805, 3141, 3142, 3215, 3214
 603, 733, 734, 807, 806, 3142, 3143, 3216, 3215
 604, 734, 735, 808, 807, 3143, 3144, 3217, 3216
 605, 735, 736, 809, 808, 3144, 3145, 3218, 3217
 606, 736, 737, 810, 809, 3145, 3146, 3219, 3218
 607, 737, 738, 811, 810, 3146, 3147, 3220, 3219
 608, 738, 739, 812, 811, 3147, 3148, 3221, 3220
 609, 739, 740, 813, 812, 3148, 3149, 3222, 3221
 610, 740, 741, 814, 813, 3149, 3150, 3223, 3222
 611, 741, 742, 815, 814, 3150, 3151, 3224, 3223
 612, 742, 743, 816, 815, 3151, 3152, 3225, 3224
 613, 743, 744, 817, 816, 3152, 3153, 3226, 3225
 614, 744, 745, 818, 817, 3153, 3154, 3227, 3226
 615, 745, 746, 819, 818, 3154, 3155, 3228, 3227
 616, 746, 747, 820, 819, 3155, 3156, 3229, 3228
 617, 747, 748, 821, 820, 3156, 3157, 3230, 3229
 618, 748, 749, 822, 821, 3157, 3158, 3231, 3230
 619, 749, 750, 823, 822, 3158, 3159, 3232, 3231
 620, 750, 751, 824, 823, 3159, 3160, 3233, 3232
 621, 751, 752, 825, 824, 3160, 3161, 3234, 3233
 622, 752, 753, 826, 825, 3161, 3162, 3235, 3234
 623, 753, 754, 827, 826, 3162, 3163, 3236, 3235
 624, 754, 755, 828, 827, 3163, 3164, 3237, 3236
 625, 755, 756, 829, 828, 3164, 3165, 3238, 3237
 626, 756, 757, 830, 829, 3165, 3166, 3239, 3238
 627, 757, 758, 831, 830, 3166, 3167, 3240, 3239
 628, 758, 759, 832, 831, 3167, 3168, 3241, 3240
 629, 759, 760, 833, 832, 3168, 3169, 3242, 3241
 630, 760, 761, 834, 833, 3169, 3170, 3243, 3242
 631, 773, 774, 847, 846, 3182, 3183, 3256, 3255
 632, 774, 775, 848, 847, 3183, 3184, 3257, 3256
 633, 775, 776, 849, 848, 3184, 3185, 3258, 3257
 634, 776, 777, 850, 849, 3185, 3186, 3259, 3258
 635, 777, 778, 851, 850, 3186, 3187, 3260, 3259
 636, 778, 779, 852, 851, 3187, 3188, 3261, 3260
 637, 779, 780, 853, 852, 3188, 3189, 3262, 3261
 638, 780, 781, 854, 853, 3189, 3190, 3263, 3262
 639, 781, 782, 855, 854, 3190, 3191, 3264, 3263
 640, 782, 783, 856, 855, 3191, 3192, 3265, 3264
 641, 783, 784, 857, 856, 3192, 3193, 3266, 3265
 642, 784, 785, 858, 857, 3193, 3194, 3267, 3266
 643, 785, 786, 859, 858, 3194, 3195, 3268, 3267
 644, 786, 787, 860, 859, 3195, 3196, 3269, 3268
 645, 787, 788, 861, 860, 3196, 3197, 3270, 3269
 646, 788, 789, 862, 861, 3197, 3198, 3271, 3270
 647, 789, 790, 863, 862, 3198, 3199, 3272, 3271
 648, 790, 791, 864, 863, 3199, 3200, 3273, 3272
 649, 791, 792, 865, 864, 3200, 3201, 3274, 3273
 650, 792, 793, 866, 865, 3201, 3202, 3275, 3274
 651, 793, 794, 867, 866, 3202, 3203, 3276, 3275
 652, 794, 795, 868, 867, 3203, 3204, 3277, 3276
 653, 795, 796, 869, 868, 3204, 3205, 3278, 3277
 654, 796, 797, 870, 869, 3205, 3206, 3279, 3278
 655, 797, 798, 871, 870, 3206, 3207, 3280, 3279
 656, 798, 799, 872, 871, 3207, 3208, 3281, 3280
 657, 799, 800, 873, 872, 3208, 3209, 3282, 3281
 658, 800, 801, 874, 873, 3209, 3210, 3283, 3282
 659, 801, 802, 875, 874, 3210, 3211, 3284, 3283
 660, 802, 803, 876, 875, 3211, 3212, 3285, 3284
 661, 804, 805, 878, 877, 3213, 3214, 3287, 3286
 662, 805, 806, 879, 878, 3214, 3215, 3288, 3287
 663, 806, 807, 880, 879, 3215, 3216, 3289, 3288
 664, 807, 808, 881, 880, 3216, 3217, 3290, 3289
 665, 808, 809, 882, 881, 3217, 3218, 3291, 3290
 666, 809, 810, 883, 882, 3218, 3219, 3292, 3291
 667, 810, 811, 884, 883, 3219, 3220, 3293, 3292
 668, 811, 812, 885, 884, 3220, 3221, 3294, 3293
 669, 812, 813, 886, 885, 3221, 3222, 3295, 3294
 670, 813, 814, 887, 886, 3222, 3223, 3296, 3295
 671, 814, 815, 888, 887, 3223, 3224, 3297, 3296
 672, 815, 816, 889, 888, 3224, 3225, 3298, 3297
 673, 816, 817, 890, 889, 3225, 3226, 3299, 3298
 674, 817, 818, 891, 890, 3226, 3227, 3300, 3299
 675, 818, 819, 892, 891, 3227, 3228, 3301, 3300
 676, 819, 820, 893, 892, 3228, 3229, 3302, 3301
 677, 820, 821, 894, 893, 3229, 3230, 3303, 3302
 678, 821, 822, 895, 894, 3230, 3231, 3304, 3303
 679, 822, 823, 896, 895, 3231, 3232, 3305, 3304
 680, 823, 824, 897, 896, 3232, 3233, 3306, 3305
 681, 824, 825, 898, 897, 3233, 3234, 3307, 3306
 682, 825, 826, 899, 898, 3234, 3235, 3308, 3307
 683, 826, 827, 900, 899, 3235, 3236, 3309, 3308
 684, 827, 828, 901, 900, 3236, 3237, 3310, 3309
 685, 828, 829, 902, 901, 3237, 3238, 3311, 3310
 686, 829, 830, 903, 902, 3238, 3239, 3312, 3311
 687, 830, 831, 904, 903, 3239, 3240, 3313, 3312
 688, 831, 832, 905, 904, 3240, 3241, 3314, 3313
 689, 832, 833, 906, 905, 3241, 3242, 3315, 3314
 690, 833, 834, 907, 906, 3242, 3243, 3316, 3315
 691, 846, 847, 920, 919, 3255, 3256, 3329, 3328
 692, 847, 848, 921, 920, 3256, 3257, 3330, 3329
 693, 848, 849, 922, 921, 3257, 3258, 3331, 3330
 694, 849, 850, 923, 922, 3258, 3259, 3332, 3331
 695, 850, 851, 924, 923, 3259, 3260, 3333, 3332
 696, 851, 852, 925, 924, 3260, 3261, 3334, 3333
 697, 852, 853, 926, 925, 3261, 3262, 3335, 3334
 698, 853, 854, 927, 926, 3262, 3263, 3336, 3335
 699, 854, 855, 928, 927, 3263, 3264, 3337, 3336
 700, 855, 856, 929, 928, 3264, 3265, 3338, 3337
 701, 856, 857, 930, 929, 3265, 3266, 3339, 3338
 702, 857, 858, 931, 930, 3266, 3267, 3340, 3339
 703, 858, 859, 932, 931, 3267, 3268, 3341, 3340
 704, 859, 860, 933, 932, 3268, 3269, 3342, 3341
 705, 860, 861, 934, 933, 3269, 3270, 3343, 3342
 706, 861, 862, 935, 934, 3270, 3271, 3344, 3343
 707, 862, 863, 936, 935, 3271, 3272, 3345, 3344
 708, 863, 864, 937, 936, 3272, 3273, 3346, 3345
 709, 864, 865, 938, 937, 3273, 3274, 3347, 3346
 710, 865, 866, 939, 938, 3274, 3275, 3348, 3347
 711, 866, 867, 940, 939, 3275, 3276, 3349, 3348
 712, 867, 868, 941, 940, 3276, 3277, 3350, 3349
 713, 868, 869, 942, 941, 3277, 3278, 3351, 3350
 714, 869, 870, 943, 942, 3278, 3279, 3352, 3351
 715, 870, 871, 944, 943, 3279, 3280, 3353, 3352
 716, 871, 872, 945, 944, 3280, 3281, 3354, 3353
 717, 872, 873, 946, 945, 3281, 3282, 3355, 3354
 718, 873, 874, 947, 946, 3282, 3283, 3356, 3355
 719, 874, 875, 948, 947, 3283, 3284, 3357, 3356
 720, 875, 876, 949, 948, 3284, 3285, 3358, 3357
 721, 877, 878, 951, 950, 3286, 3287, 3360, 3359
 722, 878, 879, 952, 951, 3287, 3288, 3361, 3360
 723, 879, 880, 953, 952, 3288, 3289, 3362, 3361
 724, 880, 881, 954, 953, 3289, 3290, 3363, 3362
 725, 881, 882, 955, 954, 3290, 3291, 3364, 3363
 726, 882, 883, 956, 955, 3291, 3292, 3365, 3364
 727, 883, 884, 957, 956, 3292, 3293, 3366, 3365
 728, 884, 885, 958, 957, 3293, 3294, 3367, 3366
 729, 885, 886, 959, 958, 3294, 3295, 3368, 3367
 730, 886, 887, 960, 959, 3295, 3296, 3369, 3368
 731, 887, 888, 961, 960, 3296, 3297, 3370, 3369
 732, 888, 889, 962, 961, 3297, 3298, 3371, 3370
 733, 889, 890, 963, 962, 3298, 3299, 3372, 3371
 734, 890, 891, 964, 963, 3299, 3300, 3373, 3372
 735, 891, 892, 965, 964, 3300, 3301, 3374, 3373
 736, 892, 893, 966, 965, 3301, 3302, 3375, 3374
 737, 893, 894, 967, 966, 3302, 3303, 3376, 3375
 738, 894, 895, 968, 967, 3303, 3304, 3377, 3376
 739, 895, 896, 969, 968, 3304, 3305, 3378, 3377
 740, 896, 897, 970, 969, 3305, 3306, 3379, 3378
 741, 897, 898, 971, 970, 3306, 3307, 3380, 3379
 742, 898, 899, 972, 971, 3307, 3308, 3381, 3380
 743, 899, 900, 973, 972, 3308, 3309, 3382, 3381
 744, 900, 901, 974, 973, 3309, 3310, 3383, 3382
 745, 901, 902, 975, 974, 3310, 3311, 3384, 3383
 746, 902, 903, 976, 975, 3311, 3312, 3385, 3384
 747, 903, 904, 977, 976, 3312, 3313, 3386, 3385
 748, 904, 905, 978, 977, 3313, 3314, 3387, 3386
 749, 905, 906, 979, 978, 3314, 3315, 3388, 3387
 750, 906, 907, 980, 979, 3315, 3316, 3389, 3388
 751, 919, 920, 993, 992, 3328, 3329, 3402, 3401
 752, 920, 921, 994, 993, 3329, 3330, 3403, 3402
 753, 921, 922, 995, 994, 3330, 3331, 3404, 3403
 754, 922, 923, 996, 995, 3331, 3332, 3405, 3404
 755, 923, 924, 997, 996, 3332, 3333, 3406, 3405
 756, 924, 925, 998, 997, 3333, 3334, 3407, 3406
 757, 925, 926, 999, 998, 3334, 3335, 3408, 3407
 758, 926, 927, 1000, 999, 3335, 3336, 3409, 3408
 759, 927, 928, 1001, 1000, 3336, 3337, 3410, 3409
 760, 928, 929, 1002, 1001, 3337, 3338, 3411, 3410
 761, 929, 930, 1003, 1002, 3338, 3339, 3412, 3411
 762, 930, 931, 1004, 1003, 3339, 3340, 3413, 3412
 763, 931, 932, 1005, 1004, 3340, 3341, 3414, 3413
 764, 932, 933, 1006, 1005, 3341, 3342, 3415, 3414
 765, 933, 934, 1007, 1006, 3342, 3343, 3416, 3415
 766, 934, 935, 1008, 1007, 3343, 3344, 3417, 3416
 767, 935, 936, 1009, 1008, 3344, 3345, 3418, 3417
 768, 936, 937, 1010, 1009, 3345, 3346, 3419, 3418
 769, 937, 938, 1011, 1010, 3346, 3347, 3420, 3419
 770, 938, 939, 1012, 1011, 3347, 3348, 3421, 3420
 771, 939, 940, 1013, 1012, 3348, 3349, 3422, 3421
 772, 940, 941, 1014, 1013, 3349, 3350, 3423, 3422
 773, 941, 942, 1015, 1014, 3350, 3351, 3424, 3423
 774, 942, 943, 1016, 1015, 3351, 3352, 3425, 3424
 775, 943, 944, 1017, 1016, 3352, 3353, 3426, 3425
 776, 944, 945, 1018, 1017, 3353, 3354, 3427, 3426
 777, 945, 946, 1019, 1018, 3354, 3355, 3428, 3427
 778, 946, 947, 1020, 1019, 3355, 3356, 3429, 3428
 779, 947, 948, 1021, 1020, 3356, 3357, 3430, 3429
 780, 948, 949, 1022, 1021, 3357, 3358, 3431, 3430
 781, 950, 951, 1024, 1023, 3359, 3360, 3433, 3432
 782, 951, 952, 1025, 1024, 3360, 3361, 3434, 3433
 783, 952, 953, 1026, 1025, 3361, 3362, 3435, 3434
 784, 953, 954, 1027, 1026, 3362, 3363, 3436, 3435
 785, 954, 955, 1028, 1027, 3363, 3364, 3437, 3436
 786, 955, 956, 1029, 1028, 3364, 3365, 3438, 3437
 787, 956, 957, 1030, 1029, 3365, 3366, 3439, 3438
 788, 957, 958, 1031, 1030, 3366, 3367, 3440, 3439
 789, 958, 959, 1032, 1031, 3367, 3368, 3441, 3440
 790, 959, 960, 1033, 1032, 3368, 3369, 3442, 3441
 791, 960, 961, 1034, 1033, 3369, 3370, 3443, 3442
 792, 961, 962, 1035, 1034, 3370, 3371, 3444, 3443
 793, 962, 963, 1036, 1035, 3371, 3372, 3445, 3444
 794, 963, 964, 1037, 1036, 3372, 3373, 3446, 3445
 795, 964, 965, 1038, 1037, 3373, 3374, 3447, 3446
 796, 965, 966, 1039, 1038, 3374, 3375, 3448, 3447
 797, 966, 967, 1040, 1039, 3375, 3376, 3449, 3448
 798, 967, 968, 1041, 1040, 3376, 3377, 3450, 3449
 799, 968, 969, 1042, 1041, 3377, 3378, 3451, 3450
 800, 969, 970, 1043, 1042, 3378, 3379, 3452, 3451
 801, 970, 971, 1044, 1043, 3379, 3380, 3453, 3452
 802, 971, 972, 1045, 1044, 3380, 3381, 3454, 3453
 803, 972, 973, 1046, 1045, 3381, 3382, 3455, 3454
 804, 973, 974, 1047, 1046, 3382, 3383, 3456, 3455
 805, 974, 975, 1048, 1047, 3383, 3384, 3457, 3456
 806, 975, 976, 1049, 1048, 3384, 3385, 3458, 3457
 807, 976, 977, 1050, 1049, 3385, 3386, 3459, 3458
 808, 977, 978, 1051, 1050, 3386, 3387, 3460, 3459
 809, 978, 979, 1052, 1051, 3387, 3388, 3461, 3460
 810, 979, 980, 1053, 1052, 3388, 3389, 3462, 3461
 811, 992, 993, 1066, 1065, 3401, 3402, 3475, 3474
 812, 993, 994, 1067, 1066, 3402, 3403, 3476, 3475
 813, 994, 995, 1068, 1067, 3403, 3404, 3477, 3476
 814, 995, 996, 1069, 1068, 3404, 3405, 3478, 3477
 815, 996, 997, 1070, 1069, 3405, 3406, 3479, 3478
 816, 997, 998, 1071, 1070, 3406, 3407, 3480, 3479
 817, 998, 999, 1072, 1071, 3407, 3408, 3481, 3480
 818, 999, 1000, 1073, 1072, 3408, 3409, 3482, 3481
 819, 1000, 1001, 1074, 1073, 3409, 3410, 3483, 3482
 820, 1001, 1002, 1075, 1074, 3410, 3411, 3484, 3483
 821, 1002, 1003, 1076, 1075, 3411, 3412, 3485, 3484
 822, 1003, 1004, 1077, 1076, 3412, 3413, 3486, 3485
 823, 1004, 1005, 1078, 1077, 3413, 3414, 3487, 3486
 824, 1005, 1006, 1079, 1078, 3414, 3415, 3488, 3487
 825, 1006, 1007, 1080, 1079, 3415, 3416, 3489, 3488
 826, 1007, 1008, 1081, 1080, 3416, 3417, 3490, 3489
 827, 1008, 1009, 1082, 1081, 3417, 3418, 3491, 3490
 828, 1009, 1010, 1083, 1082, 3418, 3419, 3492, 3491
 829, 1010, 1011, 1084, 1083, 3419, 3420, 3493, 3492
 830, 1011, 1012, 1085, 1084, 3420, 3421, 3494, 3493
 831, 1012, 1013, 1086, 1085, 3421, 3422, 3495, 3494
 832, 1013, 1014, 1087, 1086, 3422, 3423, 3496, 3495
 833, 1014, 1015, 1088, 1087, 3423, 3424, 3497, 3496
 834, 1015, 1016, 1089, 1088, 3424, 3425, 3498, 3497
 835, 1016, 1017, 1090, 1089, 3425, 3426, 3499, 3498
 836, 1017, 1018, 1091, 1090, 3426, 3427, 3500, 3499
 837, 1018, 1019, 1092, 1091, 3427, 3428, 3501, 3500
 838, 1019, 1020, 1093, 1092, 3428, 3429, 3502, 3501
 839, 1020, 1021, 1094, 1093, 3429, 3430, 3503, 3502
 840, 1021, 1022, 1095, 1094, 3430, 3431, 3504, 3503
 841, 1023, 1024, 1097, 1096, 3432, 3433, 3506, 3505
 842, 1024, 1025, 1098, 1097, 3433, 3434, 3507, 3506
 843, 1025, 1026, 1099, 1098, 3434, 3435, 3508, 3507
 844, 1026, 1027, 1100, 1099, 3435, 3436, 3509, 3508
 845, 1027, 1028, 1101, 1100, 3436, 3437, 3510, 3509
 846, 1028, 1029, 1102, 1101, 3437, 3438, 3511, 3510
 847, 1029, 1030, 1103, 1102, 3438, 3439, 3512, 3511
 848, 1030, 1031, 1104, 1103, 3439, 3440, 3513, 3512
 849, 1031, 1032, 1105, 1104, 3440, 3441, 3514, 3513
 850, 1032, 1033, 1106, 1105, 3441, 3442, 3515, 3514
 851, 1033, 1034, 1107, 1106, 3442, 3443, 3516, 3515
 852, 1034, 1035, 1108, 1107, 3443, 3444, 3517, 3516
 853, 1035, 1036, 1109, 1108, 3444, 3445, 3518, 3517
 854, 1036, 1037, 1110, 1109, 3445, 3446, 3519, 3518
 855, 1037, 1038, 1111, 1110, 3446, 3447, 3520, 3519
 856, 1038, 1039, 1112, 1111, 3447, 3448, 3521, 3520
 857, 1039, 1040, 1113, 1112, 3448, 3449, 3522, 3521
 858, 1040, 1041, 1114, 1113, 3449, 3450, 3523, 3522
 859, 1041, 1042, 1115, 1114, 3450, 3451, 3524, 3523
 860, 1042, 1043, 1116, 1115, 3451, 3452, 3525, 3524
 861, 1043, 1044, 1117, 1116, 3452, 3453, 3526, 3525
 862, 1044, 1045, 1118, 1117, 3453, 3454, 3527, 3526
 863, 1045, 1046, 1119, 1118, 3454, 3455, 3528, 3527
 864, 1046, 1047, 1120, 1119, 3455, 3456, 3529, 3528
 865, 1047, 1048, 1121, 1120, 3456, 3457, 3530, 3529
 866, 1048, 1049, 1122, 1121, 3457, 3458, 3531, 3530
 867, 1049, 1050, 1123, 1122, 3458, 3459, 3532, 3531
 868, 1050, 1051, 1124, 1123, 3459, 3460, 3533, 3532
 869, 1051, 1052, 1125, 1124, 3460, 3461, 3534, 3533
 870, 1052, 1053, 1126, 1125, 3461, 3462, 3535, 3534
 871, 1065, 1066, 1139, 1138, 3474, 3475, 3548, 3547
 872, 1066, 1067, 1140, 1139, 3475, 3476, 3549, 3548
 873, 1067, 1068, 1141, 1140, 3476, 3477, 3550, 3549
 874, 1068, 1069, 1142, 1141, 3477, 3478, 3551, 3550
 875, 1069, 1070, 1143, 1142, 3478, 3479, 3552, 3551
 876, 1070, 1071, 1144, 1143, 3479, 3480, 3553, 3552
 877, 1071, 1072, 1145, 1144, 3480, 3481, 3554, 3553
 878, 1072, 1073, 1146, 1145, 3481, 3482, 3555, 3554
 879, 1073, 1074, 1147, 1146, 3482, 3483, 3556, 3555
 880, 1074, 1075, 1148, 1147, 3483, 3484, 3557, 3556
 881, 1075, 1076, 1149, 1148, 3484, 3485, 3558, 3557
 882, 1076, 1077, 1150, 1149, 3485, 3486, 3559, 3558
 883, 1077, 1078, 1151, 1150, 3486, 3487, 3560, 3559
 884, 1078, 1079, 1152, 1151, 3487, 3488, 3561, 3560
 885, 1079, 1080, 1153, 1152, 3488, 3489, 3562, 3561
 886, 1080, 1081, 1154, 1153, 3489, 3490, 3563, 3562
 887, 1081, 1082, 1155, 1154, 3490, 3491, 3564, 3563
 888, 1082, 1083, 1156, 1155, 3491, 3492, 3565, 3564
 889, 1083, 1084, 1157, 1156, 3492, 3493, 3566, 3565
 890, 1084, 1085, 1158, 1157, 3493, 3494, 3567, 3566
 891, 1085, 1086, 1159, 1158, 3494, 3495, 3568, 3567
 892, 1086, 1087, 1160, 1159, 3495, 3496, 3569, 3568
 893, 1087, 1088, 1161, 1160, 3496, 3497, 3570, 3569
 894, 1088, 1089, 1162, 1161, 3497, 3498, 3571, 3570
 895, 1089, 1090, 1163, 1162, 3498, 3499, 3572, 3571
 896, 1090, 1091, 1164, 1163, 3499, 3500, 3573, 3572
 897, 1091, 1092, 1165, 1164, 3500, 3501, 3574, 3573
 898, 1092, 1093, 1166, 1165, 3501, 3502, 3575, 3574
 899, 1093, 1094, 1167, 1166, 3502, 3503, 3576, 3575
 900, 1094, 1095, 1168, 1167, 3503, 3504, 3577, 3576
 901, 1096, 1097, 1170, 1169, 3505, 3506, 3579, 3578
 902, 1097, 1098, 1171, 1170, 3506, 3507, 3580, 3579
 903, 1098, 1099, 1172, 1171, 3507, 3508, 3581, 3580
 904, 1099, 1100, 1173, 1172, 3508, 3509, 3582, 3581
 905, 1100, 1101, 1174, 1173, 3509, 3510, 3583, 3582
 906, 1101, 1102, 1175, 1174, 3510, 3511, 3584, 3583
 907, 1102, 1103, 1176, 1175, 3511, 3512, 3585, 3584
 908, 1103, 1104, 1177, 1176, 3512, 3513, 3586, 3585
 909, 1104, 1105, 1178, 1177, 3513, 3514, 3587, 3586
 910, 1105, 1106, 1179, 1178, 3514, 3515, 3588, 3587
 911, 1106, 1107, 1180, 1179, 3515, 3516, 3589, 3588
 912, 1107, 1108, 1181, 1180, 3516, 3517, 3590, 3589
 913, 1108, 1109, 1182, 1181, 3517, 3518, 3591, 3590
 914, 1109, 1110, 1183, 1182, 3518, 3519, 3592, 3591
 915, 1110, 1111, 1184, 1183, 3519, 3520, 3593, 3592
 916, 1111, 1112, 1185, 1184, 3520, 3521, 3594, 3593
 917, 1112, 1113, 1186, 1185, 3521, 3522, 3595, 3594
 918, 1113, 1114, 1187, 1186, 3522, 3523, 3596, 3595
 919, 1114, 1115, 1188, 1187, 3523, 3524, 3597, 3596
 920, 1115, 1116, 1189, 1188, 3524, 3525, 3598, 3597
 921, 1116, 1117, 1190, 1189, 3525, 3526, 3599, 3598
 922, 1117, 1118, 1191, 1190, 3526, 3527, 3600, 3599
 923, 1118, 1119, 1192, 1191, 3527, 3528, 3601, 3600
 924, 1119, 1120, 1193, 1192, 3528, 3529, 3602, 3601
 925, 1120, 1121, 1194, 1193, 3529, 3530, 3603, 3602
 926, 1121, 1122, 1195, 1194, 3530, 3531, 3604, 3603
 927, 1122, 1123, 1196, 1195, 3531, 3532, 3605, 3604
 928, 1123, 1124, 1197, 1196, 3532, 3533, 3606, 3605
 929, 1124, 1125, 1198, 1197, 3533, 3534, 3607, 3606
 930, 1125, 1126, 1199, 1198, 3534, 3535, 3608, 3607
 931, 1138, 1139, 1212, 1211, 3547, 3548, 3621, 3620
 932, 1139, 1140, 1213, 1212, 3548, 3549, 3622, 3621
 933, 1140, 1141, 1214, 1213, 3549, 3550, 3623, 3622
 934, 1141, 1142, 1215, 1214, 3550, 3551, 3624, 3623
 935, 1142, 1143, 1216, 1215, 3551, 3552, 3625, 3624
 936, 1143, 1144, 1217, 1216, 3552, 3553, 3626, 3625
 937, 1144, 1145, 1218, 1217, 3553, 3554, 3627, 3626
 938, 1145, 1146, 1219, 1218, 3554, 3555, 3628, 3627
 939, 1146, 1147, 1220, 1219, 3555, 3556, 3629, 3628
 940, 1147, 1148, 1221, 1220, 3556, 3557, 3630, 3629
 941, 1148, 1149, 1222, 1221, 3557, 3558, 3631, 3630
 942, 1149, 1150, 1223, 1222, 3558, 3559, 3632, 3631
 943, 1150, 1151, 1224, 1223, 3559, 3560, 3633, 3632
 944, 1151, 1152, 1225, 1224, 3560, 3561, 3634, 3633
 945, 1152, 1153, 1226, 1225, 3561, 3562, 3635, 3634
 946, 1153, 1154, 1227, 1226, 3562, 3563, 3636, 3635
 947, 1154, 1155, 1228, 1227, 3563, 3564, 3637, 3636
 948, 1155, 1156, 1229, 1228, 3564, 3565, 3638, 3637
 949, 1156, 1157, 1230, 1229, 3565, 3566, 3639, 3638
 950, 1157, 1158, 1231, 1230, 3566, 3567, 3640, 3639
 951, 1158, 1159, 1232, 1231, 3567, 3568, 3641, 3640
 952, 1159, 1160, 1233, 1232, 3568, 3569, 3642, 3641
 953, 1160, 1161, 1234, 1233, 3569, 3570, 3643, 3642
 954, 1161, 1162, 1235, 1234, 3570, 3571, 3644, 3643
 955, 1162, 1163, 1236, 1235, 3571, 3572, 3645, 3644
 956, 1163, 1164, 1237, 1236, 3572, 3573, 3646, 3645
 957, 1164, 1165, 1238, 1237, 3573, 3574, 3647, 3646
 958, 1165, 1166, 1239, 1238, 3574, 3575, 3648, 3647
 959, 1166, 1167, 1240, 1239, 3575, 3576, 3649, 3648
 960, 1167, 1168, 1241, 1240, 3576, 3577, 3650, 3649
 961, 1169, 1170, 1243, 1242, 3578, 3579, 3652, 3651
 962, 1170, 1171, 1244, 1243, 3579, 3580, 3653, 3652
 963, 1171, 1172, 1245, 1244, 3580, 3581, 3654, 3653
 964, 1172, 1173, 1246, 1245, 3581, 3582, 3655, 3654
 965, 1173, 1174, 1247, 1246, 3582, 3583, 3656, 3655
 966, 1174, 1175, 1248, 1247, 3583, 3584, 3657, 3656
 967, 1175, 1176, 1249, 1248, 3584, 3585, 3658, 3657
 968, 1176, 1177, 1250, 1249, 3585, 3586, 3659, 3658
 969, 1177, 1178, 1251, 1250, 3586, 3587, 3660, 3659
 970, 1178, 1179, 1252, 1251, 3587, 3588, 3661, 3660
 971, 1179, 1180, 1253, 1252, 3588, 3589, 3662, 3661
 972, 1180, 1181, 1254, 1253, 3589, 3590, 3663, 3662
 973, 1181, 1182, 1255, 1254, 3590, 3591, 3664, 3663
 974, 1182, 1183, 1256, 1255, 3591, 3592, 3665, 3664
 975, 1183, 1184, 1257, 1256, 3592, 3593, 3666, 3665
 976, 1184, 1185, 1258, 1257, 3593, 3594, 3667, 3666
 977, 1185, 1186, 1259, 1258, 3594, 3595, 3668, 3667
 978, 1186, 1187, 1260, 1259, 3595, 3596, 3669, 3668
 979, 1187, 1188, 1261, 1260, 3596, 3597, 3670, 3669
 980, 1188, 1189, 1262, 1261, 3597, 3598, 3671, 3670
 981, 1189, 1190, 1263, 1262, 3598, 3599, 3672, 3671
 982, 1190, 1191, 1264, 1263, 3599, 3600, 3673, 3672
 983, 1191, 1192, 1265, 1264, 3600, 3601, 3674, 3673
 984, 1192, 1193, 1266, 1265, 3601, 3602, 3675, 3674
 985, 1193, 1194, 1267, 1266, 3602, 3603, 3676, 3675
 986, 1194, 1195, 1268, 1267, 3603, 3604, 3677, 3676
 987, 1195, 1196, 1269, 1268, 3604, 3605, 3678, 3677
 988, 1196, 1197, 1270, 1269, 3605, 3606, 3679, 3678
 989, 1197, 1198, 1271, 1270, 3606, 3607, 3680, 3679
 990, 1198, 1199, 1272, 1271, 3607, 3608, 3681, 3680
 991, 1211, 1212, 1285, 1284, 3620, 3621, 3694, 3693
 992, 1212, 1213, 1286, 1285, 3621, 3622, 3695, 3694
 993, 1213, 1214, 1287, 1286, 3622, 3623, 3696, 3695
 994, 1214, 1215, 1288, 1287, 3623, 3624, 3697, 3696
 995, 1215, 1216, 1289, 1288, 3624, 3625, 3698, 3697
 996, 1216, 1217, 1290, 1289, 3625, 3626, 3699, 3698
 997, 1217, 1218, 1291, 1290, 3626, 3627, 3700, 3699
 998, 1218, 1219, 1292, 1291, 3627, 3628, 3701, 3700
 999, 1219, 1220, 1293, 1292, 3628, 3629, 3702, 3701
 1000, 1220, 1221, 1294, 1293, 3629, 3630, 3703, 3702
 1001, 1221, 1222, 1295, 1294, 3630, 3631, 3704, 3703
 1002, 1222, 1223, 1296, 1295, 3631, 3632, 3705, 3704
 1003, 1223, 1224, 1297, 1296, 3632, 3633, 3706, 3705
 1004, 1224, 1225, 1298, 1297, 3633, 3634, 3707, 3706
 1005, 1225, 1226, 1299, 1298, 3634, 3635, 3708, 3707
 1006, 1226, 1227, 1300, 1299, 3635, 3636, 3709, 3708
 1007, 1227, 1228, 1301, 1300, 3636, 3637, 3710, 3709
 1008, 1228, 1229, 1302, 1301, 3637, 3638, 3711, 3710
 1009, 1229, 1230, 1303, 1302, 3638, 3639, 3712, 3711
 1010, 1230, 1231, 1304, 1303, 3639, 3640, 3713, 3712
 1011, 1231, 1232, 1305, 1304, 3640, 3641, 3714, 3713
 1012, 1232, 1233, 1306, 1305, 3641, 3642, 3715, 3714
 1013, 1233, 1234, 1307, 1306, 3642, 3643, 3716, 3715
 1014, 1234, 1235, 1308, 1307, 3643, 3644, 3717, 3716
 1015, 1235, 1236, 1309, 1308, 3644, 3645, 3718, 3717
 1016, 1236, 1237, 1310, 1309, 3645, 3646, 3719, 3718
 1017, 1237, 1238, 1311, 1310, 3646, 3647, 3720, 3719
 1018, 1238, 1239, 1312, 1311, 3647, 3648, 3721, 3720
 1019, 1239, 1240, 1313, 1312, 3648, 3649, 3722, 3721
 1020, 1240, 1241, 1314, 1313, 3649, 3650, 3723, 3722
 1021, 1242, 1243, 1316, 1315, 3651, 3652, 3725, 3724
 1022, 1243, 1244, 1317, 1316, 3652, 3653, 3726, 3725
 1023, 1244, 1245, 1318, 1317, 3653, 3654, 3727, 3726
 1024, 1245, 1246, 1319, 1318, 3654, 3655, 3728, 3727
 1025, 1246, 1247, 1320, 1319, 3655, 3656, 3729, 3728
 1026, 1247, 1248, 1321, 1320, 3656, 3657, 3730, 3729
 1027, 1248, 1249, 1322, 1321, 3657, 3658, 3731, 3730
 1028, 1249, 1250, 1323, 1322, 3658, 3659, 3732, 3731
 1029, 1250, 1251, 1324, 1323, 3659, 3660, 3733, 3732
 1030, 1251, 1252, 1325, 1324, 3660, 3661, 3734, 3733
 1031, 1252, 1253, 1326, 1325, 3661, 3662, 3735, 3734
 1032, 1253, 1254, 1327, 1326, 3662, 3663, 3736, 3735
 1033, 1254, 1255, 1328, 1327, 3663, 3664, 3737, 3736
 1034, 1255, 1256, 1329, 1328, 3664, 3665, 3738, 3737
 1035, 1256, 1257, 1330, 1329, 3665, 3666, 3739, 3738
 1036, 1257, 1258, 1331, 1330, 3666, 3667, 3740, 3739
 1037, 1258, 1259, 1332, 1331, 3667, 3668, 3741, 3740
 1038, 1259, 1260, 1333, 1332, 3668, 3669, 3742, 3741
 1039, 1260, 1261, 1334, 1333, 3669, 3670, 3743, 3742
 1040, 1261, 1262, 1335, 1334, 3670, 3671, 3744, 3743
 1041, 1262, 1263, 1336, 1335, 3671, 3672, 3745, 3744
 1042, 1263, 1264, 1337, 1336, 3672, 3673, 3746, 3745
 1043, 1264, 1265, 1338, 1337, 3673, 3674, 3747, 3746
 1044, 1265, 1266, 1339, 1338, 3674, 3675, 3748, 3747
 1045, 1266, 1267, 1340, 1339, 3675, 3676, 3749, 3748
 1046, 1267, 1268, 1341, 1340, 3676, 3677, 3750, 3749
 1047, 1268, 1269, 1342, 1341, 3677, 3678, 3751, 3750
 1048, 1269, 1270, 1343, 1342, 3678, 3679, 3752, 3751
 1049, 1270, 1271, 1344, 1343, 3679, 3680, 3753, 3752
 1050, 1271, 1272, 1345, 1344, 3680, 3681, 3754, 3753
 1051, 1284, 1285, 1358, 1357, 3693, 3694, 3767, 3766
 1052, 1285, 1286, 1359, 1358, 3694, 3695, 3768, 3767
 1053, 1286, 1287, 1360, 1359, 3695, 3696, 3769, 3768
 1054, 1287, 1288, 1361, 1360, 3696, 3697, 3770, 3769
 1055, 1288, 1289, 1362, 1361, 3697, 3698, 3771, 3770
 1056, 1289, 1290, 1363, 1362, 3698, 3699, 3772, 3771
 1057, 1290, 1291, 1364, 1363, 3699, 3700, 3773, 3772
 1058, 1291, 1292, 1365, 1364, 3700, 3701, 3774, 3773
 1059, 1292, 1293, 1366, 1365, 3701, 3702, 3775, 3774
 1060, 1293, 1294, 1367, 1366, 3702, 3703, 3776, 3775
 1061, 1294, 1295, 1368, 1367, 3703, 3704, 3777, 3776
 1062, 1295, 1296, 1369, 1368, 3704, 3705, 3778, 3777
 1063, 1296, 1297, 1370, 1369, 3705, 3706, 3779, 3778
 1064, 1297, 1298, 1371, 1370, 3706, 3707, 3780, 3779
 1065, 1298, 1299, 1372, 1371, 3707, 3708, 3781, 3780
 1066, 1299, 1300, 1373, 1372, 3708, 3709, 3782, 3781
 1067, 1300, 1301, 1374, 1373, 3709, 3710, 3783, 3782
 1068, 1301, 1302, 1375, 1374, 3710, 3711, 3784, 3783
 1069, 1302, 1303, 1376, 1375, 3711, 3712, 3785, 3784
 1070, 1303, 1304, 1377, 1376, 3712, 3713, 3786, 3785
 1071, 1304, 1305, 1378, 1377, 3713, 3714, 3787, 3786
 1072, 1305, 1306, 1379, 1378, 3714, 3715, 3788, 3787
 1073, 1306, 1307, 1380, 1379, 3715, 3716, 3789, 3788
 1074, 1307, 1308, 1381, 1380, 3716, 3717, 3790, 3789
 1075, 1308, 1309, 1382, 1381, 3717, 3718, 3791, 3790
 1076, 1309, 1310, 1383, 1382, 3718, 3719, 3792, 3791
 1077, 1310, 1311, 1384, 1383, 3719, 3720, 3793, 3792
 1078, 1311, 1312, 1385, 1384, 3720, 3721, 3794, 3793
 1079, 1312, 1313, 1386, 1385, 3721, 3722, 3795, 3794
 1080, 1313, 1314, 1387, 1386, 3722, 3723, 3796, 3795
 1081, 1315, 1316, 1389, 1388, 3724, 3725, 3798, 3797
 1082, 1316, 1317, 1390, 1389, 3725, 3726, 3799, 3798
 1083, 1317, 1318, 1391, 1390, 3726, 3727, 3800, 3799
 1084, 1318, 1319, 1392, 1391, 3727, 3728, 3801, 3800
 1085, 1319, 1320, 1393, 1392, 3728, 3729, 3802, 3801
 1086, 1320, 1321, 1394, 1393, 3729, 3730, 3803, 3802
 1087, 1321, 1322, 1395, 1394, 3730, 3731, 3804, 3803
 1088, 1322, 1323, 1396, 1395, 3731, 3732, 3805, 3804
 1089, 1323, 1324, 1397, 1396, 3732, 3733, 3806, 3805
 1090, 1324, 1325, 1398, 1397, 3733, 3734, 3807, 3806
 1091, 1325, 1326, 1399, 1398, 3734, 3735, 3808, 3807
 1092, 1326, 1327, 1400, 1399, 3735, 3736, 3809, 3808
 1093, 1327, 1328, 1401, 1400, 3736, 3737, 3810, 3809
 1094, 1328, 1329, 1402, 1401, 3737, 3738, 3811, 3810
 1095, 1329, 1330, 1403, 1402, 3738, 3739, 3812, 3811
 1096, 1330, 1331, 1404, 1403, 3739, 3740, 3813, 3812
 1097, 1331, 1332, 1405, 1404, 3740, 3741, 3814, 3813
 1098, 1332, 1333, 1406, 1405, 3741, 3742, 3815, 3814
 1099, 1333, 1334, 1407, 1406, 3742, 3743, 3816, 3815
 1100, 1334, 1335, 1408, 1407, 3743, 3744, 3817, 3816
 1101, 1335, 1336, 1409, 1408, 3744, 3745, 3818, 3817
 1102, 1336, 1337, 1410, 1409, 3745, 3746, 3819, 3818
 1103, 1337, 1338, 1411, 1410, 3746, 3747, 3820, 3819
 1104, 1338, 1339, 1412, 1411, 3747, 3748, 3821, 3820
 1105, 1339, 1340, 1413, 1412, 3748, 3749, 3822, 3821
 1106, 1340, 1341, 1414, 1413, 3749, 3750, 3823, 3822
 1107, 1341, 1342, 1415, 1414, 3750, 3751, 3824, 3823
 1108, 1342, 1343, 1416, 1415, 3751, 3752, 3825, 3824
 1109, 1343, 1344, 1417, 1416, 3752, 3753, 3826, 3825
 1110, 1344, 1345, 1418, 1417, 3753, 3754, 3827, 3826
 1111, 1357, 1358, 1431, 1430, 3766, 3767, 3840, 3839
 1112, 1358, 1359, 1432, 1431, 3767, 3768, 3841, 3840
 1113, 1359, 1360, 1433, 1432, 3768, 3769, 3842, 3841
 1114, 1360, 1361, 1434, 1433, 3769, 3770, 3843, 3842
 1115, 1361, 1362, 1435, 1434, 3770, 3771, 3844, 3843
 1116, 1362, 1363, 1436, 1435, 3771, 3772, 3845, 3844
 1117, 1363, 1364, 1437, 1436, 3772, 3773, 3846, 3845
 1118, 1364, 1365, 1438, 1437, 3773, 3774, 3847, 3846
 1119, 1365, 1366, 1439, 1438, 3774, 3775, 3848, 3847
 1120, 1366, 1367, 1440, 1439, 3775, 3776, 3849, 3848
 1121, 1367, 1368, 1441, 1440, 3776, 3777, 3850, 3849
 1122, 1368, 1369, 1442, 1441, 3777, 3778, 3851, 3850
 1123, 1369, 1370, 1443, 1442, 3778, 3779, 3852, 3851
 1124, 1370, 1371, 1444, 1443, 3779, 3780, 3853, 3852
 1125, 1371, 1372, 1445, 1444, 3780, 3781, 3854, 3853
 1126, 1372, 1373, 1446, 1445, 3781, 3782, 3855, 3854
 1127, 1373, 1374, 1447, 1446, 3782, 3783, 3856, 3855
 1128, 1374, 1375, 1448, 1447, 3783, 3784, 3857, 3856
 1129, 1375, 1376, 1449, 1448, 3784, 3785, 3858, 3857
 1130, 1376, 1377, 1450, 1449, 3785, 3786, 3859, 3858
 1131, 1377, 1378, 1451, 1450, 3786, 3787, 3860, 3859
 1132, 1378, 1379, 1452, 1451, 3787, 3788, 3861, 3860
 1133, 1379, 1380, 1453, 1452, 3788, 3789, 3862, 3861
 1134, 1380, 1381, 1454, 1453, 3789, 3790, 3863, 3862
 1135, 1381, 1382, 1455, 1454, 3790, 3791, 3864, 3863
 1136, 1382, 1383, 1456, 1455, 3791, 3792, 3865, 3864
 1137, 1383, 1384, 1457, 1456, 3792, 3793, 3866, 3865
 1138, 1384, 1385, 1458, 1457, 3793, 3794, 3867, 3866
 1139, 1385, 1386, 1459, 1458, 3794, 3795, 3868, 3867
 1140, 1386, 1387, 1460, 1459, 3795, 3796, 3869, 3868
 1141, 1388, 1389, 1462, 1461, 3797, 3798, 3871, 3870
 1142, 1389, 1390, 1463, 1462, 3798, 3799, 3872, 3871
 1143, 1390, 1391, 1464, 1463, 3799, 3800, 3873, 3872
 1144, 1391, 1392, 1465, 1464, 3800, 3801, 3874, 3873
 1145, 1392, 1393, 1466, 1465, 3801, 3802, 3875, 3874
 1146, 1393, 1394, 1467, 1466, 3802, 3803, 3876, 3875
 1147, 1394, 1395, 1468, 1467, 3803, 3804, 3877, 3876
 1148, 1395, 1396, 1469, 1468, 3804, 3805, 3878, 3877
 1149, 1396, 1397, 1470, 1469, 3805, 3806, 3879, 3878
 1150, 1397, 1398, 1471, 1470, 3806, 3807, 3880, 3879
 1151, 1398, 1399, 1472, 1471, 3807, 3808, 3881, 3880
 1152, 1399, 1400, 1473, 1472, 3808, 3809, 3882, 3881
 1153, 1400, 1401, 1474, 1473, 3809, 3810, 3883, 3882
 1154, 1401, 1402, 1475, 1474, 3810, 3811, 3884, 3883
 1155, 1402, 1403, 1476, 1475, 3811, 3812, 3885, 3884
 1156, 1403, 1404, 1477, 1476, 3812, 3813, 3886, 3885
 1157, 1404, 1405, 1478, 1477, 3813, 3814, 3887, 3886
 1158, 1405, 1406, 1479, 1478, 3814, 3815, 3888, 3887
 1159, 1406, 1407, 1480, 1479, 3815, 3816, 3889, 3888
 1160, 1407, 1408, 1481, 1480, 3816, 3817, 3890, 3889
 1161, 1408, 1409, 1482, 1481, 3817, 3818, 3891, 3890
 1162, 1409, 1410, 1483, 1482, 3818, 3819, 3892, 3891
 1163, 1410, 1411, 1484, 1483, 3819, 3820, 3893, 3892
 1164, 1411, 1412, 1485, 1484, 3820, 3821, 3894, 3893
 1165, 1412, 1413, 1486, 1485, 3821, 3822, 3895, 3894
 1166, 1413, 1414, 1487, 1486, 3822, 3823, 3896, 3895
 1167, 1414, 1415, 1488, 1487, 3823, 3824, 3897, 3896
 1168, 1415, 1416, 1489, 1488, 3824, 3825, 3898, 3897
 1169, 1416, 1417, 1490, 1489, 3825, 3826, 3899, 3898
 1170, 1417, 1418, 1491, 1490, 3826, 3827, 3900, 3899
 1171, 1430, 1431, 1504, 1503, 3839, 3840, 3913, 3912
 1172, 1431, 1432, 1505, 1504, 3840, 3841, 3914, 3913
 1173, 1432, 1433, 1506, 1505, 3841, 3842, 3915, 3914
 1174, 1433, 1434, 1507, 1506, 3842, 3843, 3916, 3915
 1175, 1434, 1435, 1508, 1507, 3843, 3844, 3917, 3916
 1176, 1435, 1436, 1509, 1508, 3844, 3845, 3918, 3917
 1177, 1436, 1437, 1510, 1509, 3845, 3846, 3919, 3918
 1178, 1437, 1438, 1511, 1510, 3846, 3847, 3920, 3919
 1179, 1438, 1439, 1512, 1511, 3847, 3848, 3921, 3920
 1180, 1439, 1440, 1513, 1512, 3848, 3849, 3922, 3921
 1181, 1440, 1441, 1514, 1513, 3849, 3850, 3923, 3922
 1182, 1441, 1442, 1515, 1514, 3850, 3851, 3924, 3923
 1183, 1442, 1443, 1516, 1515, 3851, 3852, 3925, 3924
 1184, 1443, 1444, 1517, 1516, 3852, 3853, 3926, 3925
 1185, 1444, 1445, 1518, 1517, 3853, 3854, 3927, 3926
 1186, 1445, 1446, 1519, 1518, 3854, 3855, 3928, 3927
 1187, 1446, 1447, 1520, 1519, 3855, 3856, 3929, 3928
 1188, 1447, 1448, 1521, 1520, 3856, 3857, 3930, 3929
 1189, 1448, 1449, 1522, 1521, 3857, 3858, 3931, 3930
 1190, 1449, 1450, 1523, 1522, 3858, 3859, 3932, 3931
 1191, 1450, 1451, 1524, 1523, 3859, 3860, 3933, 3932
 1192, 1451, 1452, 1525, 1524, 3860, 3861, 3934, 3933
 1193, 1452, 1453, 1526, 1525, 3861, 3862, 3935, 3934
 1194, 1453, 1454, 1527, 1526, 3862, 3863, 3936, 3935
 1195, 1454, 1455, 1528, 1527, 3863, 3864, 3937, 3936
 1196, 1455, 1456, 1529, 1528, 3864, 3865, 3938, 3937
 1197, 1456, 1457, 1530, 1529, 3865, 3866, 3939, 3938
 1198, 1457, 1458, 1531, 1530, 3866, 3867, 3940, 3939
 1199, 1458, 1459, 1532, 1531, 3867, 3868, 3941, 3940
 1200, 1459, 1460, 1533, 1532, 3868, 3869, 3942, 3941
 1201, 1461, 1462, 1535, 1534, 3870, 3871, 3944, 3943
 1202, 1462, 1463, 1536, 1535, 3871, 3872, 3945, 3944
 1203, 1463, 1464, 1537, 1536, 3872, 3873, 3946, 3945
 1204, 1464, 1465, 1538, 1537, 3873, 3874, 3947, 3946
 1205, 1465, 1466, 1539, 1538, 3874, 3875, 3948, 3947
 1206, 1466, 1467, 1540, 1539, 3875, 3876, 3949, 3948
 1207, 1467, 1468, 1541, 1540, 3876, 3877, 3950, 3949
 1208, 1468, 1469, 1542, 1541, 3877, 3878, 3951, 3950
 1209, 1469, 1470, 1543, 1542, 3878, 3879, 3952, 3951
 1210, 1470, 1471, 1544, 1543, 3879, 3880, 3953, 3952
 1211, 1471, 1472, 1545, 1544, 3880, 3881, 3954, 3953
 1212, 1472, 1473, 1546, 1545, 3881, 3882, 3955, 3954
 1213, 1473, 1474, 1547, 1546, 3882, 3883, 3956, 3955
 1214, 1474, 1475, 1548, 1547, 3883, 3884, 3957, 3956
 1215, 1475, 1476, 1549, 1548, 3884, 3885, 3958, 3957
 1216, 1476, 1477, 1550, 1549, 3885, 3886, 3959, 3958
 1217, 1477, 1478, 1551, 1550, 3886, 3887, 3960, 3959
 1218, 1478, 1479, 1552, 1551, 3887, 3888, 3961, 3960
 1219, 1479, 1480, 1553, 1552, 3888, 3889, 3962, 3961
 1220, 1480, 1481, 1554, 1553, 3889, 3890, 3963, 3962
 1221, 1481, 1482, 1555, 1554, 3890, 3891, 3964, 3963
 1222, 1482, 1483, 1556, 1555, 3891, 3892, 3965, 3964
 1223, 1483, 1484, 1557, 1556, 3892, 3893, 3966, 3965
 1224, 1484, 1485, 1558, 1557, 3893, 3894, 3967, 3966
 1225, 1485, 1486, 1559, 1558, 3894, 3895, 3968, 3967
 1226, 1486, 1487, 1560, 1559, 3895, 3896, 3969, 3968
 1227, 1487, 1488, 1561, 1560, 3896, 3897, 3970, 3969
 1228, 1488, 1489, 1562, 1561, 3897, 3898, 3971, 3970
 1229, 1489, 1490, 1563, 1562, 3898, 3899, 3972, 3971
 1230, 1490, 1491, 1564, 1563, 3899, 3900, 3973, 3972
 1231, 1503, 1504, 1577, 1576, 3912, 3913, 3986, 3985
 1232, 1504, 1505, 1578, 1577, 3913, 3914, 3987, 3986
 1233, 1505, 1506, 1579, 1578, 3914, 3915, 3988, 3987
 1234, 1506, 1507, 1580, 1579, 3915, 3916, 3989, 3988
 1235, 1507, 1508, 1581, 1580, 3916, 3917, 3990, 3989
 1236, 1508, 1509, 1582, 1581, 3917, 3918, 3991, 3990
 1237, 1509, 1510, 1583, 1582, 3918, 3919, 3992, 3991
 1238, 1510, 1511, 1584, 1583, 3919, 3920, 3993, 3992
 1239, 1511, 1512, 1585, 1584, 3920, 3921, 3994, 3993
 1240, 1512, 1513, 1586, 1585, 3921, 3922, 3995, 3994
 1241, 1513, 1514, 1587, 1586, 3922, 3923, 3996, 3995
 1242, 1514, 1515, 1588, 1587, 3923, 3924, 3997, 3996
 1243, 1515, 1516, 1589, 1588, 3924, 3925, 3998, 3997
 1244, 1516, 1517, 1590, 1589, 3925, 3926, 3999, 3998
 1245, 1517, 1518, 1591, 1590, 3926, 3927, 4000, 3999
 1246, 1518, 1519, 1592, 1591, 3927, 3928, 4001, 4000
 1247, 1519, 1520, 1593, 1592, 3928, 3929, 4002, 4001
 1248, 1520, 1521, 1594, 1593, 3929, 3930, 4003, 4002
 1249, 1521, 1522, 1595, 1594, 3930, 3931, 4004, 4003
 1250, 1522, 1523, 1596, 1595, 3931, 3932, 4005, 4004
 1251, 1523, 1524, 1597, 1596, 3932, 3933, 4006, 4005
 1252, 1524, 1525, 1598, 1597, 3933, 3934, 4007, 4006
 1253, 1525, 1526, 1599, 1598, 3934, 3935, 4008, 4007
 1254, 1526, 1527, 1600, 1599, 3935, 3936, 4009, 4008
 1255, 1527, 1528, 1601, 1600, 3936, 3937, 4010, 4009
 1256, 1528, 1529, 1602, 1601, 3937, 3938, 4011, 4010
 1257, 1529, 1530, 1603, 1602, 3938, 3939, 4012, 4011
 1258, 1530, 1531, 1604, 1603, 3939, 3940, 4013, 4012
 1259, 1531, 1532, 1605, 1604, 3940, 3941, 4014, 4013
 1260, 1532, 1533, 1606, 1605, 3941, 3942, 4015, 4014
 1261, 1534, 1535, 1608, 1607, 3943, 3944, 4017, 4016
 1262, 1535, 1536, 1609, 1608, 3944, 3945, 4018, 4017
 1263, 1536, 1537, 1610, 1609, 3945, 3946, 4019, 4018
 1264, 1537, 1538, 1611, 1610, 3946, 3947, 4020, 4019
 1265, 1538, 1539, 1612, 1611, 3947, 3948, 4021, 4020
 1266, 1539, 1540, 1613, 1612, 3948, 3949, 4022, 4021
 1267, 1540, 1541, 1614, 1613, 3949, 3950, 4023, 4022
 1268, 1541, 1542, 1615, 1614, 3950, 3951, 4024, 4023
 1269, 1542, 1543, 1616, 1615, 3951, 3952, 4025, 4024
 1270, 1543, 1544, 1617, 1616, 3952, 3953, 4026, 4025
 1271, 1544, 1545, 1618, 1617, 3953, 3954, 4027, 4026
 1272, 1545, 1546, 1619, 1618, 3954, 3955, 4028, 4027
 1273, 1546, 1547, 1620, 1619, 3955, 3956, 4029, 4028
 1274, 1547, 1548, 1621, 1620, 3956, 3957, 4030, 4029
 1275, 1548, 1549, 1622, 1621, 3957, 3958, 4031, 4030
 1276, 1549, 1550, 1623, 1622, 3958, 3959, 4032, 4031
 1277, 1550, 1551, 1624, 1623, 3959, 3960, 4033, 4032
 1278, 1551, 1552, 1625, 1624, 3960, 3961, 4034, 4033
 1279, 1552, 1553, 1626, 1625, 3961, 3962, 4035, 4034
 1280, 1553, 1554, 1627, 1626, 3962, 3963, 4036, 4035
 1281, 1554, 1555, 1628, 1627, 3963, 3964, 4037, 4036
 1282, 1555, 1556, 1629, 1628, 3964, 3965, 4038, 4037
 1283, 1556, 1557, 1630, 1629, 3965, 3966, 4039, 4038
 1284, 1557, 1558, 1631, 1630, 3966, 3967, 4040, 4039
 1285, 1558, 1559, 1632, 1631, 3967, 3968, 4041, 4040
 1286, 1559, 1560, 1633, 1632, 3968, 3969, 4042, 4041
 1287, 1560, 1561, 1634, 1633, 3969, 3970, 4043, 4042
 1288, 1561, 1562, 1635, 1634, 3970, 3971, 4044, 4043
 1289, 1562, 1563, 1636, 1635, 3971, 3972, 4045, 4044
 1290, 1563, 1564, 1637, 1636, 3972, 3973, 4046, 4045
 1291, 1576, 1577, 1650, 1649, 3985, 3986, 4059, 4058
 1292, 1577, 1578, 1651, 1650, 3986, 3987, 4060, 4059
 1293, 1578, 1579, 1652, 1651, 3987, 3988, 4061, 4060
 1294, 1579, 1580, 1653, 1652, 3988, 3989, 4062, 4061
 1295, 1580, 1581, 1654, 1653, 3989, 3990, 4063, 4062
 1296, 1581, 1582, 1655, 1654, 3990, 3991, 4064, 4063
 1297, 1582, 1583, 1656, 1655, 3991, 3992, 4065, 4064
 1298, 1583, 1584, 1657, 1656, 3992, 3993, 4066, 4065
 1299, 1584, 1585, 1658, 1657, 3993, 3994, 4067, 4066
 1300, 1585, 1586, 1659, 1658, 3994, 3995, 4068, 4067
 1301, 1586, 1587, 1660, 1659, 3995, 3996, 4069, 4068
 1302, 1587, 1588, 1661, 1660, 3996, 3997, 4070, 4069
 1303, 1588, 1589, 1662, 1661, 3997, 3998, 4071, 4070
 1304, 1589, 1590, 1663, 1662, 3998, 3999, 4072, 4071
 1305, 1590, 1591, 1664, 1663, 3999, 4000, 4073, 4072
 1306, 1591, 1592, 1665, 1664, 4000, 4001, 4074, 4073
 1307, 1592, 1593, 1666, 1665, 4001, 4002, 4075, 4074
 1308, 1593, 1594, 1667, 1666, 4002, 4003, 4076, 4075
 1309, 1594, 1595, 1668, 1667, 4003, 4004, 4077, 4076
 1310, 1595, 1596, 1669, 1668, 4004, 4005, 4078, 4077
 1311, 1596, 1597, 1670, 1669, 4005, 4006, 4079, 4078
 1312, 1597, 1598, 1671, 1670, 4006, 4007, 4080, 4079
 1313, 1598, 1599, 1672, 1671, 4007, 4008, 4081, 4080
 1314, 1599, 1600, 1673, 1672, 4008, 4009, 4082, 4081
 1315, 1600, 1601, 1674, 1673, 4009, 4010, 4083, 4082
 1316, 1601, 1602, 1675, 1674, 4010, 4011, 4084, 4083
 1317, 1602, 1603, 1676, 1675, 4011, 4012, 4085, 4084
 1318, 1603, 1604, 1677, 1676, 4012, 4013, 4086, 4085
 1319, 1604, 1605, 1678, 1677, 4013, 4014, 4087, 4086
 1320, 1605, 1606, 1679, 1678, 4014, 4015, 4088, 4087
 1321, 1607, 1608, 1681, 1680, 4016, 4017, 4090, 4089
 1322, 1608, 1609, 1682, 1681, 4017, 4018, 4091, 4090
 1323, 1609, 1610, 1683, 1682, 4018, 4019, 4092, 4091
 1324, 1610, 1611, 1684, 1683, 4019, 4020, 4093, 4092
 1325, 1611, 1612, 1685, 1684, 4020, 4021, 4094, 4093
 1326, 1612, 1613, 1686, 1685, 4021, 4022, 4095, 4094
 1327, 1613, 1614, 1687, 1686, 4022, 4023, 4096, 4095
 1328, 1614, 1615, 1688, 1687, 4023, 4024, 4097, 4096
 1329, 1615, 1616, 1689, 1688, 4024, 4025, 4098, 4097
 1330, 1616, 1617, 1690, 1689, 4025, 4026, 4099, 4098
 1331, 1617, 1618, 1691, 1690, 4026, 4027, 4100, 4099
 1332, 1618, 1619, 1692, 1691, 4027, 4028, 4101, 4100
 1333, 1619, 1620, 1693, 1692, 4028, 4029, 4102, 4101
 1334, 1620, 1621, 1694, 1693, 4029, 4030, 4103, 4102
 1335, 1621, 1622, 1695, 1694, 4030, 4031, 4104, 4103
 1336, 1622, 1623, 1696, 1695, 4031, 4032, 4105, 4104
 1337, 1623, 1624, 1697, 1696, 4032, 4033, 4106, 4105
 1338, 1624, 1625, 1698, 1697, 4033, 4034, 4107, 4106
 1339, 1625, 1626, 1699, 1698, 4034, 4035, 4108, 4107
 1340, 1626, 1627, 1700, 1699, 4035, 4036, 4109, 4108
 1341, 1627, 1628, 1701, 1700, 4036, 4037, 4110, 4109
 1342, 1628, 1629, 1702, 1701, 4037, 4038, 4111, 4110
 1343, 1629, 1630, 1703, 1702, 4038, 4039, 4112, 4111
 1344, 1630, 1631, 1704, 1703, 4039, 4040, 4113, 4112
 1345, 1631, 1632, 1705, 1704, 4040, 4041, 4114, 4113
 1346, 1632, 1633, 1706, 1705, 4041, 4042, 4115, 4114
 1347, 1633, 1634, 1707, 1706, 4042, 4043, 4116, 4115
 1348, 1634, 1635, 1708, 1707, 4043, 4044, 4117, 4116
 1349, 1635, 1636, 1709, 1708, 4044, 4045, 4118, 4117
 1350, 1636, 1637, 1710, 1709, 4045, 4046, 4119, 4118
 1351, 1649, 1650, 1723, 1722, 4058, 4059, 4132, 4131
 1352, 1650, 1651, 1724, 1723, 4059, 4060, 4133, 4132
 1353, 1651, 1652, 1725, 1724, 4060, 4061, 4134, 4133
 1354, 1652, 1653, 1726, 1725, 4061, 4062, 4135, 4134
 1355, 1653, 1654, 1727, 1726, 4062, 4063, 4136, 4135
 1356, 1654, 1655, 1728, 1727, 4063, 4064, 4137, 4136
 1357, 1655, 1656, 1729, 1728, 4064, 4065, 4138, 4137
 1358, 1656, 1657, 1730, 1729, 4065, 4066, 4139, 4138
 1359, 1657, 1658, 1731, 1730, 4066, 4067, 4140, 4139
 1360, 1658, 1659, 1732, 1731, 4067, 4068, 4141, 4140
 1361, 1659, 1660, 1733, 1732, 4068, 4069, 4142, 4141
 1362, 1660, 1661, 1734, 1733, 4069, 4070, 4143, 4142
 1363, 1661, 1662, 1735, 1734, 4070, 4071, 4144, 4143
 1364, 1662, 1663, 1736, 1735, 4071, 4072, 4145, 4144
 1365, 1663, 1664, 1737, 1736, 4072, 4073, 4146, 4145
 1366, 1664, 1665, 1738, 1737, 4073, 4074, 4147, 4146
 1367, 1665, 1666, 1739, 1738, 4074, 4075, 4148, 4147
 1368, 1666, 1667, 1740, 1739, 4075, 4076, 4149, 4148
 1369, 1667, 1668, 1741, 1740, 4076, 4077, 4150, 4149
 1370, 1668, 1669, 1742, 1741, 4077, 4078, 4151, 4150
 1371, 1669, 1670, 1743, 1742, 4078, 4079, 4152, 4151
 1372, 1670, 1671, 1744, 1743, 4079, 4080, 4153, 4152
 1373, 1671, 1672, 1745, 1744, 4080, 4081, 4154, 4153
 1374, 1672, 1673, 1746, 1745, 4081, 4082, 4155, 4154
 1375, 1673, 1674, 1747, 1746, 4082, 4083, 4156, 4155
 1376, 1674, 1675, 1748, 1747, 4083, 4084, 4157, 4156
 1377, 1675, 1676, 1749, 1748, 4084, 4085, 4158, 4157
 1378, 1676, 1677, 1750, 1749, 4085, 4086, 4159, 4158
 1379, 1677, 1678, 1751, 1750, 4086, 4087, 4160, 4159
 1380, 1678, 1679, 1752, 1751, 4087, 4088, 4161, 4160
 1381, 1680, 1681, 1754, 1753, 4089, 4090, 4163, 4162
 1382, 1681, 1682, 1755, 1754, 4090, 4091, 4164, 4163
 1383, 1682, 1683, 1756, 1755, 4091, 4092, 4165, 4164
 1384, 1683, 1684, 1757, 1756, 4092, 4093, 4166, 4165
 1385, 1684, 1685, 1758, 1757, 4093, 4094, 4167, 4166
 1386, 1685, 1686, 1759, 1758, 4094, 4095, 4168, 4167
 1387, 1686, 1687, 1760, 1759, 4095, 4096, 4169, 4168
 1388, 1687, 1688, 1761, 1760, 4096, 4097, 4170, 4169
 1389, 1688, 1689, 1762, 1761, 4097, 4098, 4171, 4170
 1390, 1689, 1690, 1763, 1762, 4098, 4099, 4172, 4171
 1391, 1690, 1691, 1764, 1763, 4099, 4100, 4173, 4172
 1392, 1691, 1692, 1765, 1764, 4100, 4101, 4174, 4173
 1393, 1692, 1693, 1766, 1765, 4101, 4102, 4175, 4174
 1394, 1693, 1694, 1767, 1766, 4102, 4103, 4176, 4175
 1395, 1694, 1695, 1768, 1767, 4103, 4104, 4177, 4176
 1396, 1695, 1696, 1769, 1768, 4104, 4105, 4178, 4177
 1397, 1696, 1697, 1770, 1769, 4105, 4106, 4179, 4178
 1398, 1697, 1698, 1771, 1770, 4106, 4107, 4180, 4179
 1399, 1698, 1699, 1772, 1771, 4107, 4108, 4181, 4180
 1400, 1699, 1700, 1773, 1772, 4108, 4109, 4182, 4181
 1401, 1700, 1701, 1774, 1773, 4109, 4110, 4183, 4182
 1402, 1701, 1702, 1775, 1774, 4110, 4111, 4184, 4183
 1403, 1702, 1703, 1776, 1775, 4111, 4112, 4185, 4184
 1404, 1703, 1704, 1777, 1776, 4112, 4113, 4186, 4185
 1405, 1704, 1705, 1778, 1777, 4113, 4114, 4187, 4186
 1406, 1705, 1706, 1779, 1778, 4114, 4115, 4188, 4187
 1407, 1706, 1707, 1780, 1779, 4115, 4116, 4189, 4188
 1408, 1707, 1708, 1781, 1780, 4116, 4117, 4190, 4189
 1409, 1708, 1709, 1782, 1781, 4117, 4118, 4191, 4190
 1410, 1709, 1710, 1783, 1782, 4118, 4119, 4192, 4191
 1411, 1722, 1723, 1796, 1795, 4131, 4132, 4205, 4204
 1412, 1723, 1724, 1797, 1796, 4132, 4133, 4206, 4205
 1413, 1724, 1725, 1798, 1797, 4133, 4134, 4207, 4206
 1414, 1725, 1726, 1799, 1798, 4134, 4135, 4208, 4207
 1415, 1726, 1727, 1800, 1799, 4135, 4136, 4209, 4208
 1416, 1727, 1728, 1801, 1800, 4136, 4137, 4210, 4209
 1417, 1728, 1729, 1802, 1801, 4137, 4138, 4211, 4210
 1418, 1729, 1730, 1803, 1802, 4138, 4139, 4212, 4211
 1419, 1730, 1731, 1804, 1803, 4139, 4140, 4213, 4212
 1420, 1731, 1732, 1805, 1804, 4140, 4141, 4214, 4213
 1421, 1732, 1733, 1806, 1805, 4141, 4142, 4215, 4214
 1422, 1733, 1734, 1807, 1806, 4142, 4143, 4216, 4215
 1423, 1734, 1735, 1808, 1807, 4143, 4144, 4217, 4216
 1424, 1735, 1736, 1809, 1808, 4144, 4145, 4218, 4217
 1425, 1736, 1737, 1810, 1809, 4145, 4146, 4219, 4218
 1426, 1737, 1738, 1811, 1810, 4146, 4147, 4220, 4219
 1427, 1738, 1739, 1812, 1811, 4147, 4148, 4221, 4220
 1428, 1739, 1740, 1813, 1812, 4148, 4149, 4222, 4221
 1429, 1740, 1741, 1814, 1813, 4149, 4150, 4223, 4222
 1430, 1741, 1742, 1815, 1814, 4150, 4151, 4224, 4223
 1431, 1742, 1743, 1816, 1815, 4151, 4152, 4225, 4224
 1432, 1743, 1744, 1817, 1816, 4152, 4153, 4226, 4225
 1433, 1744, 1745, 1818, 1817, 4153, 4154, 4227, 4226
 1434, 1745, 1746, 1819, 1818, 4154, 4155, 4228, 4227
 1435, 1746, 1747, 1820, 1819, 4155, 4156, 4229, 4228
 1436, 1747, 1748, 1821, 1820, 4156, 4157, 4230, 4229
 1437, 1748, 1749, 1822, 1821, 4157, 4158, 4231, 4230
 1438, 1749, 1750, 1823, 1822, 4158, 4159, 4232, 4231
 1439, 1750, 1751, 1824, 1823, 4159, 4160, 4233, 4232
 1440, 1751, 1752, 1825, 1824, 4160, 4161, 4234, 4233
 1441, 1753, 1754, 1827, 1826, 4162, 4163, 4236, 4235
 1442, 1754, 1755, 1828, 1827, 4163, 4164, 4237, 4236
 1443, 1755, 1756, 1829, 1828, 4164, 4165, 4238, 4237
 1444, 1756, 1757, 1830, 1829, 4165, 4166, 4239, 4238
 1445, 1757, 1758, 1831, 1830, 4166, 4167, 4240, 4239
 1446, 1758, 1759, 1832, 1831, 4167, 4168, 4241, 4240
 1447, 1759, 1760, 1833, 1832, 4168, 4169, 4242, 4241
 1448, 1760, 1761, 1834, 1833, 4169, 4170, 4243, 4242
 1449, 1761, 1762, 1835, 1834, 4170, 4171, 4244, 4243
 1450, 1762, 1763, 1836, 1835, 4171, 4172, 4245, 4244
 1451, 1763, 1764, 1837, 1836, 4172, 4173, 4246, 4245
 1452, 1764, 1765, 1838, 1837, 4173, 4174, 4247, 4246
 1453, 1765, 1766, 1839, 1838, 4174, 4175, 4248, 4247
 1454, 1766, 1767, 1840, 1839, 4175, 4176, 4249, 4248
 1455, 1767, 1768, 1841, 1840, 4176, 4177, 4250, 4249
 1456, 1768, 1769, 1842, 1841, 4177, 4178, 4251, 4250
 1457, 1769, 1770, 1843, 1842, 4178, 4179, 4252, 4251
 1458, 1770, 1771, 1844, 1843, 4179, 4180, 4253, 4252
 1459, 1771, 1772, 1845, 1844, 4180, 4181, 4254, 4253
 1460, 1772, 1773, 1846, 1845, 4181, 4182, 4255, 4254
 1461, 1773, 1774, 1847, 1846, 4182, 4183, 4256, 4255
 1462, 1774, 1775, 1848, 1847, 4183, 4184, 4257, 4256
 1463, 1775, 1776, 1849, 1848, 4184, 4185, 4258, 4257
 1464, 1776, 1777, 1850, 1849, 4185, 4186, 4259, 4258
 1465, 1777, 1778, 1851, 1850, 4186, 4187, 4260, 4259
 1466, 1778, 1779, 1852, 1851, 4187, 4188, 4261, 4260
 1467, 1779, 1780, 1853, 1852, 4188, 4189, 4262, 4261
 1468, 1780, 1781, 1854, 1853, 4189, 4190, 4263, 4262
 1469, 1781, 1782, 1855, 1854, 4190, 4191, 4264, 4263
 1470, 1782, 1783, 1856, 1855, 4191, 4192, 4265, 4264
 1471, 1783, 1784, 1857, 1856, 4192, 4193, 4266, 4265
 1472, 1784, 1785, 1858, 1857, 4193, 4194, 4267, 4266
 1473, 1785, 1786, 1859, 1858, 4194, 4195, 4268, 4267
 1474, 1786, 1787, 1860, 1859, 4195, 4196, 4269, 4268
 1475, 1787, 1788, 1861, 1860, 4196, 4197, 4270, 4269
 1476, 1788, 1789, 1862, 1861, 4197, 4198, 4271, 4270
 1477, 1789, 1790, 1863, 1862, 4198, 4199, 4272, 4271
 1478, 1790, 1791, 1864, 1863, 4199, 4200, 4273, 4272
 1479, 1791, 1792, 1865, 1864, 4200, 4201, 4274, 4273
 1480, 1792, 1793, 1866, 1865, 4201, 4202, 4275, 4274
 1481, 1793, 1794, 1867, 1866, 4202, 4203, 4276, 4275
 1482, 1794, 1795, 1868, 1867, 4203, 4204, 4277, 4276
 1483, 1795, 1796, 1869, 1868, 4204, 4205, 4278, 4277
 1484, 1796, 1797, 1870, 1869, 4205, 4206, 4279, 4278
 1485, 1797, 1798, 1871, 1870, 4206, 4207, 4280, 4279
 1486, 1798, 1799, 1872, 1871, 4207, 4208, 4281, 4280
 1487, 1799, 1800, 1873, 1872, 4208, 4209, 4282, 4281
 1488, 1800, 1801, 1874, 1873, 4209, 4210, 4283, 4282
 1489, 1801, 1802, 1875, 1874, 4210, 4211, 4284, 4283
 1490, 1802, 1803, 1876, 1875, 4211, 4212, 4285, 4284
 1491, 1803, 1804, 1877, 1876, 4212, 4213, 4286, 4285
 1492, 1804, 1805, 1878, 1877, 4213, 4214, 4287, 4286
 1493, 1805, 1806, 1879, 1878, 4214, 4215, 4288, 4287
 1494, 1806, 1807, 1880, 1879, 4215, 4216, 4289, 4288
 1495, 1807, 1808, 1881, 1880, 4216, 4217, 4290, 4289
 1496, 1808, 1809, 1882, 1881, 4217, 4218, 4291, 4290
 1497, 1809, 1810, 1883, 1882, 4218, 4219, 4292, 4291
 1498, 1810, 1811, 1884, 1883, 4219, 4220, 4293, 4292
 1499, 1811, 1812, 1885, 1884, 4220, 4221, 4294, 4293
 1500, 1812, 1813, 1886, 1885, 4221, 4222, 4295, 4294
 1501, 1813, 1814, 1887, 1886, 4222, 4223, 4296, 4295
 1502, 1814, 1815, 1888, 1887, 4223, 4224, 4297, 4296
 1503, 1815, 1816, 1889, 1888, 4224, 4225, 4298, 4297
 1504, 1816, 1817, 1890, 1889, 4225, 4226, 4299, 4298
 1505, 1817, 1818, 1891, 1890, 4226, 4227, 4300, 4299
 1506, 1818, 1819, 1892, 1891, 4227, 4228, 4301, 4300
 1507, 1819, 1820, 1893, 1892, 4228, 4229, 4302, 4301
 1508, 1820, 1821, 1894, 1893, 4229, 4230, 4303, 4302
 1509, 1821, 1822, 1895, 1894, 4230, 4231, 4304, 4303
 1510, 1822, 1823, 1896, 1895, 4231, 4232, 4305, 4304
 1511, 1823, 1824, 1897, 1896, 4232, 4233, 4306, 4305
 1512, 1824, 1825, 1898, 1897, 4233, 4234, 4307, 4306
 1513, 1826, 1827, 1900, 1899, 4235, 4236, 4309, 4308
 1514, 1827, 1828, 1901, 1900, 4236, 4237, 4310, 4309
 1515, 1828, 1829, 1902, 1901, 4237, 4238, 4311, 4310
 1516, 1829, 1830, 1903, 1902, 4238, 4239, 4312, 4311
 1517, 1830, 1831, 1904, 1903, 4239, 4240, 4313, 4312
 1518, 1831, 1832, 1905, 1904, 4240, 4241, 4314, 4313
 1519, 1832, 1833, 1906, 1905, 4241, 4242, 4315, 4314
 1520, 1833, 1834, 1907, 1906, 4242, 4243, 4316, 4315
 1521, 1834, 1835, 1908, 1907, 4243, 4244, 4317, 4316
 1522, 1835, 1836, 1909, 1908, 4244, 4245, 4318, 4317
 1523, 1836, 1837, 1910, 1909, 4245, 4246, 4319, 4318
 1524, 1837, 1838, 1911, 1910, 4246, 4247, 4320, 4319
 1525, 1838, 1839, 1912, 1911, 4247, 4248, 4321, 4320
 1526, 1839, 1840, 1913, 1912, 4248, 4249, 4322, 4321
 1527, 1840, 1841, 1914, 1913, 4249, 4250, 4323, 4322
 1528, 1841, 1842, 1915, 1914, 4250, 4251, 4324, 4323
 1529, 1842, 1843, 1916, 1915, 4251, 4252, 4325, 4324
 1530, 1843, 1844, 1917, 1916, 4252, 4253, 4326, 4325
 1531, 1844, 1845, 1918, 1917, 4253, 4254, 4327, 4326
 1532, 1845, 1846, 1919, 1918, 4254, 4255, 4328, 4327
 1533, 1846, 1847, 1920, 1919, 4255, 4256, 4329, 4328
 1534, 1847, 1848, 1921, 1920, 4256, 4257, 4330, 4329
 1535, 1848, 1849, 1922, 1921, 4257, 4258, 4331, 4330
 1536, 1849, 1850, 1923, 1922, 4258, 4259, 4332, 4331
 1537, 1850, 1851, 1924, 1923, 4259, 4260, 4333, 4332
 1538, 1851, 1852, 1925, 1924, 4260, 4261, 4334, 4333
 1539, 1852, 1853, 1926, 1925, 4261, 4262, 4335, 4334
 1540, 1853, 1854, 1927, 1926, 4262, 4263, 4336, 4335
 1541, 1854, 1855, 1928, 1927, 4263, 4264, 4337, 4336
 1542, 1855, 1856, 1929, 1928, 4264, 4265, 4338, 4337
 1543, 1856, 1857, 1930, 1929, 4265, 4266, 4339, 4338
 1544, 1857, 1858, 1931, 1930, 4266, 4267, 4340, 4339
 1545, 1858, 1859, 1932, 1931, 4267, 4268, 4341, 4340
 1546, 1859, 1860, 1933, 1932, 4268, 4269, 4342, 4341
 1547, 1860, 1861, 1934, 1933, 4269, 4270, 4343, 4342
 1548, 1861, 1862, 1935, 1934, 4270, 4271, 4344, 4343
 1549, 1862, 1863, 1936, 1935, 4271, 4272, 4345, 4344
 1550, 1863, 1864, 1937, 1936, 4272, 4273, 4346, 4345
 1551, 1864, 1865, 1938, 1937, 4273, 4274, 4347, 4346
 1552, 1865, 1866, 1939, 1938, 4274, 4275, 4348, 4347
 1553, 1866, 1867, 1940, 1939, 4275, 4276, 4349, 4348
 1554, 1867, 1868, 1941, 1940, 4276, 4277, 4350, 4349
 1555, 1868, 1869, 1942, 1941, 4277, 4278, 4351, 4350
 1556, 1869, 1870, 1943, 1942, 4278, 4279, 4352, 4351
 1557, 1870, 1871, 1944, 1943, 4279, 4280, 4353, 4352
 1558, 1871, 1872, 1945, 1944, 4280, 4281, 4354, 4353
 1559, 1872, 1873, 1946, 1945, 4281, 4282, 4355, 4354
 1560, 1873, 1874, 1947, 1946, 4282, 4283, 4356, 4355
 1561, 1874, 1875, 1948, 1947, 4283, 4284, 4357, 4356
 1562, 1875, 1876, 1949, 1948, 4284, 4285, 4358, 4357
 1563, 1876, 1877, 1950, 1949, 4285, 4286, 4359, 4358
 1564, 1877, 1878, 1951, 1950, 4286, 4287, 4360, 4359
 1565, 1878, 1879, 1952, 1951, 4287, 4288, 4361, 4360
 1566, 1879, 1880, 1953, 1952, 4288, 4289, 4362, 4361
 1567, 1880, 1881, 1954, 1953, 4289, 4290, 4363, 4362
 1568, 1881, 1882, 1955, 1954, 4290, 4291, 4364, 4363
 1569, 1882, 1883, 1956, 1955, 4291, 4292, 4365, 4364
 1570, 1883, 1884, 1957, 1956, 4292, 4293, 4366, 4365
 1571, 1884, 1885, 1958, 1957, 4293, 4294, 4367, 4366
 1572, 1885, 1886, 1959, 1958, 4294, 4295, 4368, 4367
 1573, 1886, 1887, 1960, 1959, 4295, 4296, 4369, 4368
 1574, 1887, 1888, 1961, 1960, 4296, 4297, 4370, 4369
 1575, 1888, 1889, 1962, 1961, 4297, 4298, 4371, 4370
 1576, 1889, 1890, 1963, 1962, 4298, 4299, 4372, 4371
 1577, 1890, 1891, 1964, 1963, 4299, 4300, 4373, 4372
 1578, 1891, 1892, 1965, 1964, 4300, 4301, 4374, 4373
 1579, 1892, 1893, 1966, 1965, 4301, 4302, 4375, 4374
 1580, 1893, 1894, 1967, 1966, 4302, 4303, 4376, 4375
 1581, 1894, 1895, 1968, 1967, 4303, 4304, 4377, 4376
 1582, 1895, 1896, 1969, 1968, 4304, 4305, 4378, 4377
 1583, 1896, 1897, 1970, 1969, 4305, 4306, 4379, 4378
 1584, 1897, 1898, 1971, 1970, 4306, 4307, 4380, 4379
 1585, 1899, 1900, 1973, 1972, 4308, 4309, 4382, 4381
 1586, 1900, 1901, 1974, 1973, 4309, 4310, 4383, 4382
 1587, 1901, 1902, 1975, 1974, 4310, 4311, 4384, 4383
 1588, 1902, 1903, 1976, 1975, 4311, 4312, 4385, 4384
 1589, 1903, 1904, 1977, 1976, 4312, 4313, 4386, 4385
 1590, 1904, 1905, 1978, 1977, 4313, 4314, 4387, 4386
 1591, 1905, 1906, 1979, 1978, 4314, 4315, 4388, 4387
 1592, 1906, 1907, 1980, 1979, 4315, 4316, 4389, 4388
 1593, 1907, 1908, 1981, 1980, 4316, 4317, 4390, 4389
 1594, 1908, 1909, 1982, 1981, 4317, 4318, 4391, 4390
 1595, 1909, 1910, 1983, 1982, 4318, 4319, 4392, 4391
 1596, 1910, 1911, 1984, 1983, 4319, 4320, 4393, 4392
 1597, 1911, 1912, 1985, 1984, 4320, 4321, 4394, 4393
 1598, 1912, 1913, 1986, 1985, 4321, 4322, 4395, 4394
 1599, 1913, 1914, 1987, 1986, 4322, 4323, 4396, 4395
 1600, 1914, 1915, 1988, 1987, 4323, 4324, 4397, 4396
 1601, 1915, 1916, 1989, 1988, 4324, 4325, 4398, 4397
 1602, 1916, 1917, 1990, 1989, 4325, 4326, 4399, 4398
 1603, 1917, 1918, 1991, 1990, 4326, 4327, 4400, 4399
 1604, 1918, 1919, 1992, 1991, 4327, 4328, 4401, 4400
 1605, 1919, 1920, 1993, 1992, 4328, 4329, 4402, 4401
 1606, 1920, 1921, 1994, 1993, 4329, 4330, 4403, 4402
 1607, 1921, 1922, 1995, 1994, 4330, 4331, 4404, 4403
 1608, 1922, 1923, 1996, 1995, 4331, 4332, 4405, 4404
 1609, 1923, 1924, 1997, 1996, 4332, 4333, 4406, 4405
 1610, 1924, 1925, 1998, 1997, 4333, 4334, 4407, 4406
 1611, 1925, 1926, 1999, 1998, 4334, 4335, 4408, 4407
 1612, 1926, 1927, 2000, 1999, 4335, 4336, 4409, 4408
 1613, 1927, 1928, 2001, 2000, 4336, 4337, 4410, 4409
 1614, 1928, 1929, 2002, 2001, 4337, 4338, 4411, 4410
 1615, 1929, 1930, 2003, 2002, 4338, 4339, 4412, 4411
 1616, 1930, 1931, 2004, 2003, 4339, 4340, 4413, 4412
 1617, 1931, 1932, 2005, 2004, 4340, 4341, 4414, 4413
 1618, 1932, 1933, 2006, 2005, 4341, 4342, 4415, 4414
 1619, 1933, 1934, 2007, 2006, 4342, 4343, 4416, 4415
 1620, 1934, 1935, 2008, 2007, 4343, 4344, 4417, 4416
 1621, 1935, 1936, 2009, 2008, 4344, 4345, 4418, 4417
 1622, 1936, 1937, 2010, 2009, 4345, 4346, 4419, 4418
 1623, 1937, 1938, 2011, 2010, 4346, 4347, 4420, 4419
 1624, 1938, 1939, 2012, 2011, 4347, 4348, 4421, 4420
 1625, 1939, 1940, 2013, 2012, 4348, 4349, 4422, 4421
 1626, 1940, 1941, 2014, 2013, 4349, 4350, 4423, 4422
 1627, 1941, 1942, 2015, 2014, 4350, 4351, 4424, 4423
 1628, 1942, 1943, 2016, 2015, 4351, 4352, 4425, 4424
 1629, 1943, 1944, 2017, 2016, 4352, 4353, 4426, 4425
 1630, 1944, 1945, 2018, 2017, 4353, 4354, 4427, 4426
 1631, 1945, 1946, 2019, 2018, 4354, 4355, 4428, 4427
 1632, 1946, 1947, 2020, 2019, 4355, 4356, 4429, 4428
 1633, 1947, 1948, 2021, 2020, 4356, 4357, 4430, 4429
 1634, 1948, 1949, 2022, 2021, 4357, 4358, 4431, 4430
 1635, 1949, 1950, 2023, 2022, 4358, 4359, 4432, 4431
 1636, 1950, 1951, 2024, 2023, 4359, 4360, 4433, 4432
 1637, 1951, 1952, 2025, 2024, 4360, 4361, 4434, 4433
 1638, 1952, 1953, 2026, 2025, 4361, 4362, 4435, 4434
 1639, 1953, 1954, 2027, 2026, 4362, 4363, 4436, 4435
 1640, 1954, 1955, 2028, 2027, 4363, 4364, 4437, 4436
 1641, 1955, 1956, 2029, 2028, 4364, 4365, 4438, 4437
 1642, 1956, 1957, 2030, 2029, 4365, 4366, 4439, 4438
 1643, 1957, 1958, 2031, 2030, 4366, 4367, 4440, 4439
 1644, 1958, 1959, 2032, 2031, 4367, 4368, 4441, 4440
 1645, 1959, 1960, 2033, 2032, 4368, 4369, 4442, 4441
 1646, 1960, 1961, 2034, 2033, 4369, 4370, 4443, 4442
 1647, 1961, 1962, 2035, 2034, 4370, 4371, 4444, 4443
 1648, 1962, 1963, 2036, 2035, 4371, 4372, 4445, 4444
 1649, 1963, 1964, 2037, 2036, 4372, 4373, 4446, 4445
 1650, 1964, 1965, 2038, 2037, 4373, 4374, 4447, 4446
 1651, 1965, 1966, 2039, 2038, 4374, 4375, 4448, 4447
 1652, 1966, 1967, 2040, 2039, 4375, 4376, 4449, 4448
 1653, 1967, 1968, 2041, 2040, 4376, 4377, 4450, 4449
 1654, 1968, 1969, 2042, 2041, 4377, 4378, 4451, 4450
 1655, 1969, 1970, 2043, 2042, 4378, 4379, 4452, 4451
 1656, 1970, 1971, 2044, 2043, 4379, 4380, 4453, 4452
 1657, 1972, 1973, 2046, 2045, 4381, 4382, 4455, 4454
 1658, 1973, 1974, 2047, 2046, 4382, 4383, 4456, 4455
 1659, 1974, 1975, 2048, 2047, 4383, 4384, 4457, 4456
 1660, 1975, 1976, 2049, 2048, 4384, 4385, 4458, 4457
 1661, 1976, 1977, 2050, 2049, 4385, 4386, 4459, 4458
 1662, 1977, 1978, 2051, 2050, 4386, 4387, 4460, 4459
 1663, 1978, 1979, 2052, 2051, 4387, 4388, 4461, 4460
 1664, 1979, 1980, 2053, 2052, 4388, 4389, 4462, 4461
 1665, 1980, 1981, 2054, 2053, 4389, 4390, 4463, 4462
 1666, 1981, 1982, 2055, 2054, 4390, 4391, 4464, 4463
 1667, 1982, 1983, 2056, 2055, 4391, 4392, 4465, 4464
 1668, 1983, 1984, 2057, 2056, 4392, 4393, 4466, 4465
 1669, 1984, 1985, 2058, 2057, 4393, 4394, 4467, 4466
 1670, 1985, 1986, 2059, 2058, 4394, 4395, 4468, 4467
 1671, 1986, 1987, 2060, 2059, 4395, 4396, 4469, 4468
 1672, 1987, 1988, 2061, 2060, 4396, 4397, 4470, 4469
 1673, 1988, 1989, 2062, 2061, 4397, 4398, 4471, 4470
 1674, 1989, 1990, 2063, 2062, 4398, 4399, 4472, 4471
 1675, 1990, 1991, 2064, 2063, 4399, 4400, 4473, 4472
 1676, 1991, 1992, 2065, 2064, 4400, 4401, 4474, 4473
 1677, 1992, 1993, 2066, 2065, 4401, 4402, 4475, 4474
 1678, 1993, 1994, 2067, 2066, 4402, 4403, 4476, 4475
 1679, 1994, 1995, 2068, 2067, 4403, 4404, 4477, 4476
 1680, 1995, 1996, 2069, 2068, 4404, 4405, 4478, 4477
 1681, 1996, 1997, 2070, 2069, 4405, 4406, 4479, 4478
 1682, 1997, 1998, 2071, 2070, 4406, 4407, 4480, 4479
 1683, 1998, 1999, 2072, 2071, 4407, 4408, 4481, 4480
 1684, 1999, 2000, 2073, 2072, 4408, 4409, 4482, 4481
 1685, 2000, 2001, 2074, 2073, 4409, 4410, 4483, 4482
 1686, 2001, 2002, 2075, 2074, 4410, 4411, 4484, 4483
 1687, 2002, 2003, 2076, 2075, 4411, 4412, 4485, 4484
 1688, 2003, 2004, 2077, 2076, 4412, 4413, 4486, 4485
 1689, 2004, 2005, 2078, 2077, 4413, 4414, 4487, 4486
 1690, 2005, 2006, 2079, 2078, 4414, 4415, 4488, 4487
 1691, 2006, 2007, 2080, 2079, 4415, 4416, 4489, 4488
 1692, 2007, 2008, 2081, 2080, 4416, 4417, 4490, 4489
 1693, 2008, 2009, 2082, 2081, 4417, 4418, 4491, 4490
 1694, 2009, 2010, 2083, 2082, 4418, 4419, 4492, 4491
 1695, 2010, 2011, 2084, 2083, 4419, 4420, 4493, 4492
 1696, 2011, 2012, 2085, 2084, 4420, 4421, 4494, 4493
 1697, 2012, 2013, 2086, 2085, 4421, 4422, 4495, 4494
 1698, 2013, 2014, 2087, 2086, 4422, 4423, 4496, 4495
 1699, 2014, 2015, 2088, 2087, 4423, 4424, 4497, 4496
 1700, 2015, 2016, 2089, 2088, 4424, 4425, 4498, 4497
 1701, 2016, 2017, 2090, 2089, 4425, 4426, 4499, 4498
 1702, 2017, 2018, 2091, 2090, 4426, 4427, 4500, 4499
 1703, 2018, 2019, 2092, 2091, 4427, 4428, 4501, 4500
 1704, 2019, 2020, 2093, 2092, 4428, 4429, 4502, 4501
 1705, 2020, 2021, 2094, 2093, 4429, 4430, 4503, 4502
 1706, 2021, 2022, 2095, 2094, 4430, 4431, 4504, 4503
 1707, 2022, 2023, 2096, 2095, 4431, 4432, 4505, 4504
 1708, 2023, 2024, 2097, 2096, 4432, 4433, 4506, 4505
 1709, 2024, 2025, 2098, 2097, 4433, 4434, 4507, 4506
 1710, 2025, 2026, 2099, 2098, 4434, 4435, 4508, 4507
 1711, 2026, 2027, 2100, 2099, 4435, 4436, 4509, 4508
 1712, 2027, 2028, 2101, 2100, 4436, 4437, 4510, 4509
 1713, 2028, 2029, 2102, 2101, 4437, 4438, 4511, 4510
 1714, 2029, 2030, 2103, 2102, 4438, 4439, 4512, 4511
 1715, 2030, 2031, 2104, 2103, 4439, 4440, 4513, 4512
 1716, 2031, 2032, 2105, 2104, 4440, 4441, 4514, 4513
 1717, 2032, 2033, 2106, 2105, 4441, 4442, 4515, 4514
 1718, 2033, 2034, 2107, 2106, 4442, 4443, 4516, 4515
 1719, 2034, 2035, 2108, 2107, 4443, 4444, 4517, 4516
 1720, 2035, 2036, 2109, 2108, 4444, 4445, 4518, 4517
 1721, 2036, 2037, 2110, 2109, 4445, 4446, 4519, 4518
 1722, 2037, 2038, 2111, 2110, 4446, 4447, 4520, 4519
 1723, 2038, 2039, 2112, 2111, 4447, 4448, 4521, 4520
 1724, 2039, 2040, 2113, 2112, 4448, 4449, 4522, 4521
 1725, 2040, 2041, 2114, 2113, 4449, 4450, 4523, 4522
 1726, 2041, 2042, 2115, 2114, 4450, 4451, 4524, 4523
 1727, 2042, 2043, 2116, 2115, 4451, 4452, 4525, 4524
 1728, 2043, 2044, 2117, 2116, 4452, 4453, 4526, 4525
 1729, 2045, 2046, 2119, 2118, 4454, 4455, 4528, 4527
 1730, 2046, 2047, 2120, 2119, 4455, 4456, 4529, 4528
 1731, 2047, 2048, 2121, 2120, 4456, 4457, 4530, 4529
 1732, 2048, 2049, 2122, 2121, 4457, 4458, 4531, 4530
 1733, 2049, 2050, 2123, 2122, 4458, 4459, 4532, 4531
 1734, 2050, 2051, 2124, 2123, 4459, 4460, 4533, 4532
 1735, 2051, 2052, 2125, 2124, 4460, 4461, 4534, 4533
 1736, 2052, 2053, 2126, 2125, 4461, 4462, 4535, 4534
 1737, 2053, 2054, 2127, 2126, 4462, 4463, 4536, 4535
 1738, 2054, 2055, 2128, 2127, 4463, 4464, 4537, 4536
 1739, 2055, 2056, 2129, 2128, 4464, 4465, 4538, 4537
 1740, 2056, 2057, 2130, 2129, 4465, 4466, 4539, 4538
 1741, 2057, 2058, 2131, 2130, 4466, 4467, 4540, 4539
 1742, 2058, 2059, 2132, 2131, 4467, 4468, 4541, 4540
 1743, 2059, 2060, 2133, 2132, 4468, 4469, 4542, 4541
 1744, 2060, 2061, 2134, 2133, 4469, 4470, 4543, 4542
 1745, 2061, 2062, 2135, 2134, 4470, 4471, 4544, 4543
 1746, 2062, 2063, 2136, 2135, 4471, 4472, 4545, 4544
 1747, 2063, 2064, 2137, 2136, 4472, 4473, 4546, 4545
 1748, 2064, 2065, 2138, 2137, 4473, 4474, 4547, 4546
 1749, 2065, 2066, 2139, 2138, 4474, 4475, 4548, 4547
 1750, 2066, 2067, 2140, 2139, 4475, 4476, 4549, 4548
 1751, 2067, 2068, 2141, 2140, 4476, 4477, 4550, 4549
 1752, 2068, 2069, 2142, 2141, 4477, 4478, 4551, 4550
 1753, 2069, 2070, 2143, 2142, 4478, 4479, 4552, 4551
 1754, 2070, 2071, 2144, 2143, 4479, 4480, 4553, 4552
 1755, 2071, 2072, 2145, 2144, 4480, 4481, 4554, 4553
 1756, 2072, 2073, 2146, 2145, 4481, 4482, 4555, 4554
 1757, 2073, 2074, 2147, 2146, 4482, 4483, 4556, 4555
 1758, 2074, 2075, 2148, 2147, 4483, 4484, 4557, 4556
 1759, 2075, 2076, 2149, 2148, 4484, 4485, 4558, 4557
 1760, 2076, 2077, 2150, 2149, 4485, 4486, 4559, 4558
 1761, 2077, 2078, 2151, 2150, 4486, 4487, 4560, 4559
 1762, 2078, 2079, 2152, 2151, 4487, 4488, 4561, 4560
 1763, 2079, 2080, 2153, 2152, 4488, 4489, 4562, 4561
 1764, 2080, 2081, 2154, 2153, 4489, 4490, 4563, 4562
 1765, 2081, 2082, 2155, 2154, 4490, 4491, 4564, 4563
 1766, 2082, 2083, 2156, 2155, 4491, 4492, 4565, 4564
 1767, 2083, 2084, 2157, 2156, 4492, 4493, 4566, 4565
 1768, 2084, 2085, 2158, 2157, 4493, 4494, 4567, 4566
 1769, 2085, 2086, 2159, 2158, 4494, 4495, 4568, 4567
 1770, 2086, 2087, 2160, 2159, 4495, 4496, 4569, 4568
 1771, 2087, 2088, 2161, 2160, 4496, 4497, 4570, 4569
 1772, 2088, 2089, 2162, 2161, 4497, 4498, 4571, 4570
 1773, 2089, 2090, 2163, 2162, 4498, 4499, 4572, 4571
 1774, 2090, 2091, 2164, 2163, 4499, 4500, 4573, 4572
 1775, 2091, 2092, 2165, 2164, 4500, 4501, 4574, 4573
 1776, 2092, 2093, 2166, 2165, 4501, 4502, 4575, 4574
 1777, 2093, 2094, 2167, 2166, 4502, 4503, 4576, 4575
 1778, 2094, 2095, 2168, 2167, 4503, 4504, 4577, 4576
 1779, 2095, 2096, 2169, 2168, 4504, 4505, 4578, 4577
 1780, 2096, 2097, 2170, 2169, 4505, 4506, 4579, 4578
 1781, 2097, 2098, 2171, 2170, 4506, 4507, 4580, 4579
 1782, 2098, 2099, 2172, 2171, 4507, 4508, 4581, 4580
 1783, 2099, 2100, 2173, 2172, 4508, 4509, 4582, 4581
 1784, 2100, 2101, 2174, 2173, 4509, 4510, 4583, 4582
 1785, 2101, 2102, 2175, 2174, 4510, 4511, 4584, 4583
 1786, 2102, 2103, 2176, 2175, 4511, 4512, 4585, 4584
 1787, 2103, 2104, 2177, 2176, 4512, 4513, 4586, 4585
 1788, 2104, 2105, 2178, 2177, 4513, 4514, 4587, 4586
 1789, 2105, 2106, 2179, 2178, 4514, 4515, 4588, 4587
 1790, 2106, 2107, 2180, 2179, 4515, 4516, 4589, 4588
 1791, 2107, 2108, 2181, 2180, 4516, 4517, 4590, 4589
 1792, 2108, 2109, 2182, 2181, 4517, 4518, 4591, 4590
 1793, 2109, 2110, 2183, 2182, 4518, 4519, 4592, 4591
 1794, 2110, 2111, 2184, 2183, 4519, 4520, 4593, 4592
 1795, 2111, 2112, 2185, 2184, 4520, 4521, 4594, 4593
 1796, 2112, 2113, 2186, 2185, 4521, 4522, 4595, 4594
 1797, 2113, 2114, 2187, 2186, 4522, 4523, 4596, 4595
 1798, 2114, 2115, 2188, 2187, 4523, 4524, 4597, 4596
 1799, 2115, 2116, 2189, 2188, 4524, 4525, 4598, 4597
 1800, 2116, 2117, 2190, 2189, 4525, 4526, 4599, 4598
 1801, 2118, 2119, 2192, 2191, 4527, 4528, 4601, 4600
 1802, 2119, 2120, 2193, 2192, 4528, 4529, 4602, 4601
 1803, 2120, 2121, 2194, 2193, 4529, 4530, 4603, 4602
 1804, 2121, 2122, 2195, 2194, 4530, 4531, 4604, 4603
 1805, 2122, 2123, 2196, 2195, 4531, 4532, 4605, 4604
 1806, 2123, 2124, 2197, 2196, 4532, 4533, 4606, 4605
 1807, 2124, 2125, 2198, 2197, 4533, 4534, 4607, 4606
 1808, 2125, 2126, 2199, 2198, 4534, 4535, 4608, 4607
 1809, 2126, 2127, 2200, 2199, 4535, 4536, 4609, 4608
 1810, 2127, 2128, 2201, 2200, 4536, 4537, 4610, 4609
 1811, 2128, 2129, 2202, 2201, 4537, 4538, 4611, 4610
 1812, 2129, 2130, 2203, 2202, 4538, 4539, 4612, 4611
 1813, 2130, 2131, 2204, 2203, 4539, 4540, 4613, 4612
 1814, 2131, 2132, 2205, 2204, 4540, 4541, 4614, 4613
 1815, 2132, 2133, 2206, 2205, 4541, 4542, 4615, 4614
 1816, 2133, 2134, 2207, 2206, 4542, 4543, 4616, 4615
 1817, 2134, 2135, 2208, 2207, 4543, 4544, 4617, 4616
 1818, 2135, 2136, 2209, 2208, 4544, 4545, 4618, 4617
 1819, 2136, 2137, 2210, 2209, 4545, 4546, 4619, 4618
 1820, 2137, 2138, 2211, 2210, 4546, 4547, 4620, 4619
 1821, 2138, 2139, 2212, 2211, 4547, 4548, 4621, 4620
 1822, 2139, 2140, 2213, 2212, 4548, 4549, 4622, 4621
 1823, 2140, 2141, 2214, 2213, 4549, 4550, 4623, 4622
 1824, 2141, 2142, 2215, 2214, 4550, 4551, 4624, 4623
 1825, 2142, 2143, 2216, 2215, 4551, 4552, 4625, 4624
 1826, 2143, 2144, 2217, 2216, 4552, 4553, 4626, 4625
 1827, 2144, 2145, 2218, 2217, 4553, 4554, 4627, 4626
 1828, 2145, 2146, 2219, 2218, 4554, 4555, 4628, 4627
 1829, 2146, 2147, 2220, 2219, 4555, 4556, 4629, 4628
 1830, 2147, 2148, 2221, 2220, 4556, 4557, 4630, 4629
 1831, 2148, 2149, 2222, 2221, 4557, 4558, 4631, 4630
 1832, 2149, 2150, 2223, 2222, 4558, 4559, 4632, 4631
 1833, 2150, 2151, 2224, 2223, 4559, 4560, 4633, 4632
 1834, 2151, 2152, 2225, 2224, 4560, 4561, 4634, 4633
 1835, 2152, 2153, 2226, 2225, 4561, 4562, 4635, 4634
 1836, 2153, 2154, 2227, 2226, 4562, 4563, 4636, 4635
 1837, 2154, 2155, 2228, 2227, 4563, 4564, 4637, 4636
 1838, 2155, 2156, 2229, 2228, 4564, 4565, 4638, 4637
 1839, 2156, 2157, 2230, 2229, 4565, 4566, 4639, 4638
 1840, 2157, 2158, 2231, 2230, 4566, 4567, 4640, 4639
 1841, 2158, 2159, 2232, 2231, 4567, 4568, 4641, 4640
 1842, 2159, 2160, 2233, 2232, 4568, 4569, 4642, 4641
 1843, 2160, 2161, 2234, 2233, 4569, 4570, 4643, 4642
 1844, 2161, 2162, 2235, 2234, 4570, 4571, 4644, 4643
 1845, 2162, 2163, 2236, 2235, 4571, 4572, 4645, 4644
 1846, 2163, 2164, 2237, 2236, 4572, 4573, 4646, 4645
 1847, 2164, 2165, 2238, 2237, 4573, 4574, 4647, 4646
 1848, 2165, 2166, 2239, 2238, 4574, 4575, 4648, 4647
 1849, 2166, 2167, 2240, 2239, 4575, 4576, 4649, 4648
 1850, 2167, 2168, 2241, 2240, 4576, 4577, 4650, 4649
 1851, 2168, 2169, 2242, 2241, 4577, 4578, 4651, 4650
 1852, 2169, 2170, 2243, 2242, 4578, 4579, 4652, 4651
 1853, 2170, 2171, 2244, 2243, 4579, 4580, 4653, 4652
 1854, 2171, 2172, 2245, 2244, 4580, 4581, 4654, 4653
 1855, 2172, 2173, 2246, 2245, 4581, 4582, 4655, 4654
 1856, 2173, 2174, 2247, 2246, 4582, 4583, 4656, 4655
 1857, 2174, 2175, 2248, 2247, 4583, 4584, 4657, 4656
 1858, 2175, 2176, 2249, 2248, 4584, 4585, 4658, 4657
 1859, 2176, 2177, 2250, 2249, 4585, 4586, 4659, 4658
 1860, 2177, 2178, 2251, 2250, 4586, 4587, 4660, 4659
 1861, 2178, 2179, 2252, 2251, 4587, 4588, 4661, 4660
 1862, 2179, 2180, 2253, 2252, 4588, 4589, 4662, 4661
 1863, 2180, 2181, 2254, 2253, 4589, 4590, 4663, 4662
 1864, 2181, 2182, 2255, 2254, 4590, 4591, 4664, 4663
 1865, 2182, 2183, 2256, 2255, 4591, 4592, 4665, 4664
 1866, 2183, 2184, 2257, 2256, 4592, 4593, 4666, 4665
 1867, 2184, 2185, 2258, 2257, 4593, 4594, 4667, 4666
 1868, 2185, 2186, 2259, 2258, 4594, 4595, 4668, 4667
 1869, 2186, 2187, 2260, 2259, 4595, 4596, 4669, 4668
 1870, 2187, 2188, 2261, 2260, 4596, 4597, 4670, 4669
 1871, 2188, 2189, 2262, 2261, 4597, 4598, 4671, 4670
 1872, 2189, 2190, 2263, 2262, 4598, 4599, 4672, 4671
 1873, 2191, 2192, 2265, 2264, 4600, 4601, 4674, 4673
 1874, 2192, 2193, 2266, 2265, 4601, 4602, 4675, 4674
 1875, 2193, 2194, 2267, 2266, 4602, 4603, 4676, 4675
 1876, 2194, 2195, 2268, 2267, 4603, 4604, 4677, 4676
 1877, 2195, 2196, 2269, 2268, 4604, 4605, 4678, 4677
 1878, 2196, 2197, 2270, 2269, 4605, 4606, 4679, 4678
 1879, 2197, 2198, 2271, 2270, 4606, 4607, 4680, 4679
 1880, 2198, 2199, 2272, 2271, 4607, 4608, 4681, 4680
 1881, 2199, 2200, 2273, 2272, 4608, 4609, 4682, 4681
 1882, 2200, 2201, 2274, 2273, 4609, 4610, 4683, 4682
 1883, 2201, 2202, 2275, 2274, 4610, 4611, 4684, 4683
 1884, 2202, 2203, 2276, 2275, 4611, 4612, 4685, 4684
 1885, 2203, 2204, 2277, 2276, 4612, 4613, 4686, 4685
 1886, 2204, 2205, 2278, 2277, 4613, 4614, 4687, 4686
 1887, 2205, 2206, 2279, 2278, 4614, 4615, 4688, 4687
 1888, 2206, 2207, 2280, 2279, 4615, 4616, 4689, 4688
 1889, 2207, 2208, 2281, 2280, 4616, 4617, 4690, 4689
 1890, 2208, 2209, 2282, 2281, 4617, 4618, 4691, 4690
 1891, 2209, 2210, 2283, 2282, 4618, 4619, 4692, 4691
 1892, 2210, 2211, 2284, 2283, 4619, 4620, 4693, 4692
 1893, 2211, 2212, 2285, 2284, 4620, 4621, 4694, 4693
 1894, 2212, 2213, 2286, 2285, 4621, 4622, 4695, 4694
 1895, 2213, 2214, 2287, 2286, 4622, 4623, 4696, 4695
 1896, 2214, 2215, 2288, 2287, 4623, 4624, 4697, 4696
 1897, 2215, 2216, 2289, 2288, 4624, 4625, 4698, 4697
 1898, 2216, 2217, 2290, 2289, 4625, 4626, 4699, 4698
 1899, 2217, 2218, 2291, 2290, 4626, 4627, 4700, 4699
 1900, 2218, 2219, 2292, 2291, 4627, 4628, 4701, 4700
 1901, 2219, 2220, 2293, 2292, 4628, 4629, 4702, 4701
 1902, 2220, 2221, 2294, 2293, 4629, 4630, 4703, 4702
 1903, 2221, 2222, 2295, 2294, 4630, 4631, 4704, 4703
 1904, 2222, 2223, 2296, 2295, 4631, 4632, 4705, 4704
 1905, 2223, 2224, 2297, 2296, 4632, 4633, 4706, 4705
 1906, 2224, 2225, 2298, 2297, 4633, 4634, 4707, 4706
 1907, 2225, 2226, 2299, 2298, 4634, 4635, 4708, 4707
 1908, 2226, 2227, 2300, 2299, 4635, 4636, 4709, 4708
 1909, 2227, 2228, 2301, 2300, 4636, 4637, 4710, 4709
 1910, 2228, 2229, 2302, 2301, 4637, 4638, 4711, 4710
 1911, 2229, 2230, 2303, 2302, 4638, 4639, 4712, 4711
 1912, 2230, 2231, 2304, 2303, 4639, 4640, 4713, 4712
 1913, 2231, 2232, 2305, 2304, 4640, 4641, 4714, 4713
 1914, 2232, 2233, 2306, 2305, 4641, 4642, 4715, 4714
 1915, 2233, 2234, 2307, 2306, 4642, 4643, 4716, 4715
 1916, 2234, 2235, 2308, 2307, 4643, 4644, 4717, 4716
 1917, 2235, 2236, 2309, 2308, 4644, 4645, 4718, 4717
 1918, 2236, 2237, 2310, 2309, 4645, 4646, 4719, 4718
 1919, 2237, 2238, 2311, 2310, 4646, 4647, 4720, 4719
 1920, 2238, 2239, 2312, 2311, 4647, 4648, 4721, 4720
 1921, 2239, 2240, 2313, 2312, 4648, 4649, 4722, 4721
 1922, 2240, 2241, 2314, 2313, 4649, 4650, 4723, 4722
 1923, 2241, 2242, 2315, 2314, 4650, 4651, 4724, 4723
 1924, 2242, 2243, 2316, 2315, 4651, 4652, 4725, 4724
 1925, 2243, 2244, 2317, 2316, 4652, 4653, 4726, 4725
 1926, 2244, 2245, 2318, 2317, 4653, 4654, 4727, 4726
 1927, 2245, 2246, 2319, 2318, 4654, 4655, 4728, 4727
 1928, 2246, 2247, 2320, 2319, 4655, 4656, 4729, 4728
 1929, 2247, 2248, 2321, 2320, 4656, 4657, 4730, 4729
 1930, 2248, 2249, 2322, 2321, 4657, 4658, 4731, 4730
 1931, 2249, 2250, 2323, 2322, 4658, 4659, 4732, 4731
 1932, 2250, 2251, 2324, 2323, 4659, 4660, 4733, 4732
 1933, 2251, 2252, 2325, 2324, 4660, 4661, 4734, 4733
 1934, 2252, 2253, 2326, 2325, 4661, 4662, 4735, 4734
 1935, 2253, 2254, 2327, 2326, 4662, 4663, 4736, 4735
 1936, 2254, 2255, 2328, 2327, 4663, 4664, 4737, 4736
 1937, 2255, 2256, 2329, 2328, 4664, 4665, 4738, 4737
 1938, 2256, 2257, 2330, 2329, 4665, 4666, 4739, 4738
 1939, 2257, 2258, 2331, 2330, 4666, 4667, 4740, 4739
 1940, 2258, 2259, 2332, 2331, 4667, 4668, 4741, 4740
 1941, 2259, 2260, 2333, 2332, 4668, 4669, 4742, 4741
 1942, 2260, 2261, 2334, 2333, 4669, 4670, 4743, 4742
 1943, 2261, 2262, 2335, 2334, 4670, 4671, 4744, 4743
 1944, 2262, 2263, 2336, 2335, 4671, 4672, 4745, 4744
 1945, 2264, 2265, 2338, 2337, 4673, 4674, 4747, 4746
 1946, 2265, 2266, 2339, 2338, 4674, 4675, 4748, 4747
 1947, 2266, 2267, 2340, 2339, 4675, 4676, 4749, 4748
 1948, 2267, 2268, 2341, 2340, 4676, 4677, 4750, 4749
 1949, 2268, 2269, 2342, 2341, 4677, 4678, 4751, 4750
 1950, 2269, 2270, 2343, 2342, 4678, 4679, 4752, 4751
 1951, 2270, 2271, 2344, 2343, 4679, 4680, 4753, 4752
 1952, 2271, 2272, 2345, 2344, 4680, 4681, 4754, 4753
 1953, 2272, 2273, 2346, 2345, 4681, 4682, 4755, 4754
 1954, 2273, 2274, 2347, 2346, 4682, 4683, 4756, 4755
 1955, 2274, 2275, 2348, 2347, 4683, 4684, 4757, 4756
 1956, 2275, 2276, 2349, 2348, 4684, 4685, 4758, 4757
 1957, 2276, 2277, 2350, 2349, 4685, 4686, 4759, 4758
 1958, 2277, 2278, 2351, 2350, 4686, 4687, 4760, 4759
 1959, 2278, 2279, 2352, 2351, 4687, 4688, 4761, 4760
 1960, 2279, 2280, 2353, 2352, 4688, 4689, 4762, 4761
 1961, 2280, 2281, 2354, 2353, 4689, 4690, 4763, 4762
 1962, 2281, 2282, 2355, 2354, 4690, 4691, 4764, 4763
 1963, 2282, 2283, 2356, 2355, 4691, 4692, 4765, 4764
 1964, 2283, 2284, 2357, 2356, 4692, 4693, 4766, 4765
 1965, 2284, 2285, 2358, 2357, 4693, 4694, 4767, 4766
 1966, 2285, 2286, 2359, 2358, 4694, 4695, 4768, 4767
 1967, 2286, 2287, 2360, 2359, 4695, 4696, 4769, 4768
 1968, 2287, 2288, 2361, 2360, 4696, 4697, 4770, 4769
 1969, 2288, 2289, 2362, 2361, 4697, 4698, 4771, 4770
 1970, 2289, 2290, 2363, 2362, 4698, 4699, 4772, 4771
 1971, 2290, 2291, 2364, 2363, 4699, 4700, 4773, 4772
 1972, 2291, 2292, 2365, 2364, 4700, 4701, 4774, 4773
 1973, 2292, 2293, 2366, 2365, 4701, 4702, 4775, 4774
 1974, 2293, 2294, 2367, 2366, 4702, 4703, 4776, 4775
 1975, 2294, 2295, 2368, 2367, 4703, 4704, 4777, 4776
 1976, 2295, 2296, 2369, 2368, 4704, 4705, 4778, 4777
 1977, 2296, 2297, 2370, 2369, 4705, 4706, 4779, 4778
 1978, 2297, 2298, 2371, 2370, 4706, 4707, 4780, 4779
 1979, 2298, 2299, 2372, 2371, 4707, 4708, 4781, 4780
 1980, 2299, 2300, 2373, 2372, 4708, 4709, 4782, 4781
 1981, 2300, 2301, 2374, 2373, 4709, 4710, 4783, 4782
 1982, 2301, 2302, 2375, 2374, 4710, 4711, 4784, 4783
 1983, 2302, 2303, 2376, 2375, 4711, 4712, 4785, 4784
 1984, 2303, 2304, 2377, 2376, 4712, 4713, 4786, 4785
 1985, 2304, 2305, 2378, 2377, 4713, 4714, 4787, 4786
 1986, 2305, 2306, 2379, 2378, 4714, 4715, 4788, 4787
 1987, 2306, 2307, 2380, 2379, 4715, 4716, 4789, 4788
 1988, 2307, 2308, 2381, 2380, 4716, 4717, 4790, 4789
 1989, 2308, 2309, 2382, 2381, 4717, 4718, 4791, 4790
 1990, 2309, 2310, 2383, 2382, 4718, 4719, 4792, 4791
 1991, 2310, 2311, 2384, 2383, 4719, 4720, 4793, 4792
 1992, 2311, 2312, 2385, 2384, 4720, 4721, 4794, 4793
 1993, 2312, 2313, 2386, 2385, 4721, 4722, 4795, 4794
 1994, 2313, 2314, 2387, 2386, 4722, 4723, 4796, 4795
 1995, 2314, 2315, 2388, 2387, 4723, 4724, 4797, 4796
 1996, 2315, 2316, 2389, 2388, 4724, 4725, 4798, 4797
 1997, 2316, 2317, 2390, 2389, 4725, 4726, 4799, 4798
 1998, 2317, 2318, 2391, 2390, 4726, 4727, 4800, 4799
 1999, 2318, 2319, 2392, 2391, 4727, 4728, 4801, 4800
 2000, 2319, 2320, 2393, 2392, 4728, 4729, 4802, 4801
 2001, 2320, 2321, 2394, 2393, 4729, 4730, 4803, 4802
 2002, 2321, 2322, 2395, 2394, 4730, 4731, 4804, 4803
 2003, 2322, 2323, 2396, 2395, 4731, 4732, 4805, 4804
 2004, 2323, 2324, 2397, 2396, 4732, 4733, 4806, 4805
 2005, 2324, 2325, 2398, 2397, 4733, 4734, 4807, 4806
 2006, 2325, 2326, 2399, 2398, 4734, 4735, 4808, 4807
 2007, 2326, 2327, 2400, 2399, 4735, 4736, 4809, 4808
 2008, 2327, 2328, 2401, 2400, 4736, 4737, 4810, 4809
 2009, 2328, 2329, 2402, 2401, 4737, 4738, 4811, 4810
 2010, 2329, 2330, 2403, 2402, 4738, 4739, 4812, 4811
 2011, 2330, 2331, 2404, 2403, 4739, 4740, 4813, 4812
 2012, 2331, 2332, 2405, 2404, 4740, 4741, 4814, 4813
 2013, 2332, 2333, 2406, 2405, 4741, 4742, 4815, 4814
 2014, 2333, 2334, 2407, 2406, 4742, 4743, 4816, 4815
 2015, 2334, 2335, 2408, 2407, 4743, 4744, 4817, 4816
 2016, 2335, 2336, 2409, 2408, 4744, 4745, 4818, 4817
*ELSET, ELSET=EXMIN
 1, 61, 121, 181, 241, 301, 361, 421
 481, 541, 601, 661, 721, 781, 841, 901
 961, 1021, 1081, 1141, 1201, 1261, 1321, 1381
 1441, 1513, 1585, 1657, 1729, 1801, 1873, 1945
*ELSET, ELSET=EXMAX
 60, 120, 180, 240, 300, 360, 420, 480
 540, 600, 660, 720, 780, 840, 900, 960
 1020, 1080, 1140, 1200, 1260, 1320, 1380, 1440
 1512, 1584, 1656, 1728, 1800, 1872, 1944, 2016
*ELSET, ELSET=EBARREL
 1945, 1946, 1947, 1948, 1949, 1950, 1951, 1952
 1953, 1954, 1955, 1956, 1957, 1958, 1959, 1960
 1961, 1962, 1963, 1964, 1965, 1966, 1967, 1968
 1969, 1970, 1971, 1972, 1973, 1974, 1975, 1976
 1977, 1978, 1979, 1980, 1981, 1982, 1983, 1984
 1985, 1986, 1987, 1988, 1989, 1990, 1991, 1992
 1993, 1994, 1995, 1996, 1997, 1998, 1999, 2000
 2001, 2002, 2003, 2004, 2005, 2006, 2007, 2008
 2009, 2010, 2011, 2012, 2013, 2014, 2015, 2016
*SURFACE, NAME=XPER0
 EXMIN, S6
*SURFACE, NAME=XPER1
 EXMAX, S4
*SURFACE, NAME=ZPER0
 CHANNEL, S1
*SURFACE, NAME=ZPER1
 CHANNEL, S2
*SURFACE, NAME=BARREL
 EBARREL, S5
*BOUNDARY, TYPE=PERIODIC
 XPER0, XPER1, 0.038115620559547495, 0.0, 0.0
*BOUNDARY, TYPE=PERIODIC
 ZPER0, ZPER1, 0.0, 0.0, 0.0004
*MATERIAL, NAME=MELT
*DENSITY
 1000.0
*VISCOSITY
 1000.0
*FLUID SECTION, ELSET=CHANNEL, MATERIAL=MELT
*STEP, NAME=channel
*NAVIER STOKES, STEADY STATE, HEAT TRANSFER=NONE
*CONTROLS, PARAMETERS=DISCRETIZATION
 CONVECTION=NONE, PRESSURE_VELOCITY=COUPLED
*CONTROLS, PARAMETERS=RELAXATION
 VISCOSITY=0.5
*CONTROLS, PARAMETERS=SOLVER
 TOL=1e-09, MAX_OUTER=200
*BOUNDARY, TYPE=VELOCITY
 BARREL, -0.038115620559547495, 0.0, 0.1197437535368905
*DLOAD
 CHANNEL, BF, -314159.26535897935, 0.0, -100000.0
*OUTPUT, FIELD, FORMAT=NPZ+VTK
*END STEP
