** 8x4x1 の六面体メッシュ。上辺ほど x 方向へずれる（せん断 0.3）ので軸平行の箱格子ではなく、
** StructuredGridRecoveryProcess は拒否し、InpMeshProcess（面ベース非構造）+ HeatTransferFVMProcess で解く。
** 左端 LEFT（傾いた面）、右端 RIGHT、上面 TOP は *SURFACE。中央 2 列 HEATER に体積発熱。
*NODE, NSET=NALL
 1, 0, 0, 0
 2, 0.025, 0, 0
 3, 0.05, 0, 0
 4, 0.075, 0, 0
 5, 0.1, 0, 0
 6, 0.125, 0, 0
 7, 0.15, 0, 0
 8, 0.175, 0, 0
 9, 0.2, 0, 0
 10, 0.0075, 0.025, 0
 11, 0.0325, 0.025, 0
 12, 0.0575, 0.025, 0
 13, 0.0825, 0.025, 0
 14, 0.1075, 0.025, 0
 15, 0.1325, 0.025, 0
 16, 0.1575, 0.025, 0
 17, 0.1825, 0.025, 0
 18, 0.2075, 0.025, 0
 19, 0.015, 0.05, 0
 20, 0.04, 0.05, 0
 21, 0.065, 0.05, 0
 22, 0.09, 0.05, 0
 23, 0.115, 0.05, 0
 24, 0.14, 0.05, 0
 25, 0.165, 0.05, 0
 26, 0.19, 0.05, 0
 27, 0.215, 0.05, 0
 28, 0.0225, 0.075, 0
 29, 0.0475, 0.075, 0
 30, 0.0725, 0.075, 0
 31, 0.0975, 0.075, 0
 32, 0.1225, 0.075, 0
 33, 0.1475, 0.075, 0
 34, 0.1725, 0.075, 0
 35, 0.1975, 0.075, 0
 36, 0.2225, 0.075, 0
 37, 0.03, 0.1, 0
 38, 0.055, 0.1, 0
 39, 0.08, 0.1, 0
 40, 0.105, 0.1, 0
 41, 0.13, 0.1, 0
 42, 0.155, 0.1, 0
 43, 0.18, 0.1, 0
 44, 0.205, 0.1, 0
 45, 0.23, 0.1, 0
 46, 0, 0, 0.025
 47, 0.025, 0, 0.025
 48, 0.05, 0, 0.025
 49, 0.075, 0, 0.025
 50, 0.1, 0, 0.025
 51, 0.125, 0, 0.025
 52, 0.15, 0, 0.025
 53, 0.175, 0, 0.025
 54, 0.2, 0, 0.025
 55, 0.0075, 0.025, 0.025
 56, 0.0325, 0.025, 0.025
 57, 0.0575, 0.025, 0.025
 58, 0.0825, 0.025, 0.025
 59, 0.1075, 0.025, 0.025
 60, 0.1325, 0.025, 0.025
 61, 0.1575, 0.025, 0.025
 62, 0.1825, 0.025, 0.025
 63, 0.2075, 0.025, 0.025
 64, 0.015, 0.05, 0.025
 65, 0.04, 0.05, 0.025
 66, 0.065, 0.05, 0.025
 67, 0.09, 0.05, 0.025
 68, 0.115, 0.05, 0.025
 69, 0.14, 0.05, 0.025
 70, 0.165, 0.05, 0.025
 71, 0.19, 0.05, 0.025
 72, 0.215, 0.05, 0.025
 73, 0.0225, 0.075, 0.025
 74, 0.0475, 0.075, 0.025
 75, 0.0725, 0.075, 0.025
 76, 0.0975, 0.075, 0.025
 77, 0.1225, 0.075, 0.025
 78, 0.1475, 0.075, 0.025
 79, 0.1725, 0.075, 0.025
 80, 0.1975, 0.075, 0.025
 81, 0.2225, 0.075, 0.025
 82, 0.03, 0.1, 0.025
 83, 0.055, 0.1, 0.025
 84, 0.08, 0.1, 0.025
 85, 0.105, 0.1, 0.025
 86, 0.13, 0.1, 0.025
 87, 0.155, 0.1, 0.025
 88, 0.18, 0.1, 0.025
 89, 0.205, 0.1, 0.025
 90, 0.23, 0.1, 0.025
*ELEMENT, TYPE=C3D8, ELSET=PLATE
 1, 1, 2, 11, 10, 46, 47, 56, 55
 2, 2, 3, 12, 11, 47, 48, 57, 56
 3, 3, 4, 13, 12, 48, 49, 58, 57
 4, 4, 5, 14, 13, 49, 50, 59, 58
 5, 5, 6, 15, 14, 50, 51, 60, 59
 6, 6, 7, 16, 15, 51, 52, 61, 60
 7, 7, 8, 17, 16, 52, 53, 62, 61
 8, 8, 9, 18, 17, 53, 54, 63, 62
 9, 10, 11, 20, 19, 55, 56, 65, 64
 10, 11, 12, 21, 20, 56, 57, 66, 65
 11, 12, 13, 22, 21, 57, 58, 67, 66
 12, 13, 14, 23, 22, 58, 59, 68, 67
 13, 14, 15, 24, 23, 59, 60, 69, 68
 14, 15, 16, 25, 24, 60, 61, 70, 69
 15, 16, 17, 26, 25, 61, 62, 71, 70
 16, 17, 18, 27, 26, 62, 63, 72, 71
 17, 19, 20, 29, 28, 64, 65, 74, 73
 18, 20, 21, 30, 29, 65, 66, 75, 74
 19, 21, 22, 31, 30, 66, 67, 76, 75
 20, 22, 23, 32, 31, 67, 68, 77, 76
 21, 23, 24, 33, 32, 68, 69, 78, 77
 22, 24, 25, 34, 33, 69, 70, 79, 78
 23, 25, 26, 35, 34, 70, 71, 80, 79
 24, 26, 27, 36, 35, 71, 72, 81, 80
 25, 28, 29, 38, 37, 73, 74, 83, 82
 26, 29, 30, 39, 38, 74, 75, 84, 83
 27, 30, 31, 40, 39, 75, 76, 85, 84
 28, 31, 32, 41, 40, 76, 77, 86, 85
 29, 32, 33, 42, 41, 77, 78, 87, 86
 30, 33, 34, 43, 42, 78, 79, 88, 87
 31, 34, 35, 44, 43, 79, 80, 89, 88
 32, 35, 36, 45, 44, 80, 81, 90, 89
*ELSET, ELSET=HEATER
 4, 5, 12, 13, 20, 21, 28, 29
*ELSET, ELSET=LEFT_ELS
 1, 9, 17, 25
*ELSET, ELSET=RIGHT_ELS
 8, 16, 24, 32
*SURFACE, NAME=LEFT, TYPE=ELEMENT
 LEFT_ELS, S6
*SURFACE, NAME=RIGHT, TYPE=ELEMENT
 RIGHT_ELS, S4
*SURFACE, NAME=TOP, TYPE=ELEMENT
 PLATE, S2
