** 4x2x2 六面体メッシュ（cavity 例と同じく ykep で構造格子として復元される）
*NODE, NSET=NALL
 1, 0, 0, 0
 2, 0.05, 0, 0
 3, 0.1, 0, 0
 4, 0.15, 0, 0
 5, 0.2, 0, 0
 6, 0, 0.05, 0
 7, 0.05, 0.05, 0
 8, 0.1, 0.05, 0
 9, 0.15, 0.05, 0
 10, 0.2, 0.05, 0
 11, 0, 0.1, 0
 12, 0.05, 0.1, 0
 13, 0.1, 0.1, 0
 14, 0.15, 0.1, 0
 15, 0.2, 0.1, 0
 16, 0, 0, 0.025
 17, 0.05, 0, 0.025
 18, 0.1, 0, 0.025
 19, 0.15, 0, 0.025
 20, 0.2, 0, 0.025
 21, 0, 0.05, 0.025
 22, 0.05, 0.05, 0.025
 23, 0.1, 0.05, 0.025
 24, 0.15, 0.05, 0.025
 25, 0.2, 0.05, 0.025
 26, 0, 0.1, 0.025
 27, 0.05, 0.1, 0.025
 28, 0.1, 0.1, 0.025
 29, 0.15, 0.1, 0.025
 30, 0.2, 0.1, 0.025
 31, 0, 0, 0.05
 32, 0.05, 0, 0.05
 33, 0.1, 0, 0.05
 34, 0.15, 0, 0.05
 35, 0.2, 0, 0.05
 36, 0, 0.05, 0.05
 37, 0.05, 0.05, 0.05
 38, 0.1, 0.05, 0.05
 39, 0.15, 0.05, 0.05
 40, 0.2, 0.05, 0.05
 41, 0, 0.1, 0.05
 42, 0.05, 0.1, 0.05
 43, 0.1, 0.1, 0.05
 44, 0.15, 0.1, 0.05
 45, 0.2, 0.1, 0.05
*ELEMENT, TYPE=C3D8, ELSET=PLATE
 1, 1, 2, 7, 6, 16, 17, 22, 21
 2, 2, 3, 8, 7, 17, 18, 23, 22
 3, 3, 4, 9, 8, 18, 19, 24, 23
 4, 4, 5, 10, 9, 19, 20, 25, 24
 5, 6, 7, 12, 11, 21, 22, 27, 26
 6, 7, 8, 13, 12, 22, 23, 28, 27
 7, 8, 9, 14, 13, 23, 24, 29, 28
 8, 9, 10, 15, 14, 24, 25, 30, 29
 9, 16, 17, 22, 21, 31, 32, 37, 36
 10, 17, 18, 23, 22, 32, 33, 38, 37
 11, 18, 19, 24, 23, 33, 34, 39, 38
 12, 19, 20, 25, 24, 34, 35, 40, 39
 13, 21, 22, 27, 26, 36, 37, 42, 41
 14, 22, 23, 28, 27, 37, 38, 43, 42
 15, 23, 24, 29, 28, 38, 39, 44, 43
 16, 24, 25, 30, 29, 39, 40, 45, 44
*ELSET, ELSET=LEFT_COL
 1, 5, 9, 13
*ELSET, ELSET=RIGHT_COL
 4, 8, 12, 16
*ELSET, ELSET=TOP_LAYER
 9, 10, 11, 12, 13, 14, 15, 16
*ELSET, ELSET=HEATER, GENERATE
 2, 16, 4
 3, 16, 4
*SURFACE, NAME=LEFT, TYPE=ELEMENT
 LEFT_COL, S6
*SURFACE, NAME=RIGHT, TYPE=ELEMENT
 RIGHT_COL, S4
*SURFACE, NAME=TOP, TYPE=ELEMENT
 TOP_LAYER, S2
